c description: Random 4-CNF over 110 variables and 462 clauses
c generator: CNFgen (0.9.5)
c copyright: (C) 2012-2026 Massimo Lauria <massimo.lauria@uniroma1.it>
c url: https://massimolauria.net/cnfgen
c
p cnf 110 462
-1 50 88 -94 0
6 -18 30 81 0
17 -53 58 84 0
34 -37 43 -77 0
-1 66 83 84 0
-27 -32 37 -95 0
27 70 -81 -100 0
-19 20 -51 68 0
8 30 73 -77 0
-20 -35 -36 92 0
56 73 -82 -102 0
20 71 94 98 0
-29 61 -84 94 0
1 -67 -93 105 0
-43 71 75 -102 0
14 -55 -59 108 0
-43 46 53 -59 0
20 54 57 109 0
-26 42 56 -85 0
-29 73 -88 -98 0
-48 59 74 92 0
-17 46 -74 86 0
-33 -49 -52 -83 0
-8 73 -74 86 0
-20 35 87 -96 0
-14 -55 65 -90 0
-8 -17 26 30 0
-14 21 62 -69 0
-7 -13 -102 103 0
-9 50 -54 -94 0
27 30 -48 -74 0
31 56 -79 -102 0
4 39 49 -91 0
74 75 92 101 0
16 -53 63 108 0
-13 -14 -39 44 0
23 29 -68 -107 0
2 -38 40 85 0
17 23 57 71 0
42 59 -88 -108 0
3 -22 -44 107 0
-24 -25 93 -100 0
-21 -34 -79 97 0
-5 -36 53 -90 0
-12 14 -76 99 0
-30 37 58 103 0
-2 18 34 105 0
47 -51 -95 96 0
-63 -65 87 89 0
-37 -44 90 -110 0
-12 -32 -71 -77 0
-57 -79 83 -87 0
-16 -33 44 -58 0
-31 -75 78 106 0
65 69 74 -97 0
-28 -68 97 103 0
-2 -53 58 -73 0
64 72 -81 94 0
-17 44 55 -86 0
13 45 -74 97 0
73 -77 -83 -91 0
-28 34 44 -70 0
-49 53 79 -110 0
-1 -42 53 -80 0
-23 76 91 110 0
-49 -59 67 93 0
-44 -60 62 -75 0
-70 -74 94 101 0
16 50 77 -99 0
-3 7 -21 98 0
14 21 76 -110 0
22 46 80 -85 0
22 -69 -79 86 0
-22 -30 -36 -75 0
22 23 76 -90 0
33 49 -75 -94 0
-8 -54 87 -94 0
18 39 40 42 0
-35 50 -63 -78 0
-34 39 45 98 0
2 -24 -85 -92 0
-41 51 -59 -87 0
14 21 25 86 0
5 -37 103 109 0
-60 -70 -74 -91 0
51 55 -84 88 0
-3 -67 88 -93 0
8 -30 78 -80 0
43 -44 -59 -60 0
-33 47 67 -99 0
7 14 -85 -89 0
-37 -57 74 83 0
-6 -70 -73 75 0
8 26 -48 49 0
9 -38 57 69 0
57 -66 -83 89 0
-15 -34 -37 64 0
-33 38 80 110 0
-17 18 -59 -60 0
-32 39 -70 75 0
-36 -61 -70 -72 0
-2 65 72 -100 0
-9 -59 -80 89 0
-5 66 -89 105 0
20 -35 37 57 0
-46 -69 -78 107 0
25 -37 -67 -98 0
19 46 54 -64 0
-56 -73 78 -108 0
31 -48 -92 -106 0
-11 73 -88 -96 0
-18 -33 56 98 0
12 -14 82 108 0
-21 -31 -54 62 0
37 74 90 -106 0
11 -46 -74 83 0
-48 -97 101 110 0
-11 26 72 110 0
-39 44 -92 101 0
-36 42 -92 104 0
-24 -49 -80 -99 0
49 -69 76 -89 0
47 69 -109 -110 0
14 32 39 79 0
-15 29 -45 -109 0
18 -61 -74 -105 0
37 -64 -67 69 0
55 -64 -76 -82 0
-14 -17 56 -99 0
-3 39 43 59 0
-69 79 86 87 0
-16 -36 42 -80 0
3 -36 -67 -84 0
-2 13 -21 98 0
-5 20 -62 -87 0
27 -30 81 -96 0
-23 45 72 80 0
2 5 9 56 0
33 -45 -48 108 0
12 -43 -85 -91 0
3 26 55 75 0
-10 20 99 -109 0
-9 15 -69 105 0
13 -14 40 -109 0
2 -19 33 73 0
-19 -63 70 76 0
-38 -45 53 -66 0
37 41 73 -110 0
-2 -19 54 104 0
-53 92 99 -106 0
21 63 -67 -83 0
-19 62 -74 76 0
-1 8 79 -87 0
-29 -35 48 52 0
-42 56 98 -102 0
31 44 52 92 0
32 34 -76 -87 0
4 80 93 -103 0
-7 -10 -81 -86 0
57 68 88 93 0
28 -40 46 106 0
12 -77 -85 99 0
-27 39 65 77 0
16 24 32 76 0
5 -33 -99 -105 0
-16 87 88 -103 0
-5 12 -58 66 0
23 56 -60 -96 0
-21 -62 -63 -69 0
18 -22 42 89 0
32 90 -103 108 0
5 -20 -90 -91 0
26 -39 -101 -103 0
-29 85 -94 -106 0
-8 -31 -66 -107 0
-19 55 -68 -108 0
-38 47 61 83 0
6 -28 -80 -88 0
10 -60 66 109 0
-6 -12 71 108 0
-71 -81 -93 -95 0
-20 -52 -73 -105 0
12 43 -65 69 0
-23 25 -86 -89 0
45 62 -79 83 0
-22 57 -68 -86 0
6 -27 -90 -101 0
58 -72 -76 -105 0
-30 37 -39 101 0
28 -50 -65 79 0
8 -25 58 -109 0
-13 -38 67 -110 0
-9 -19 69 106 0
-3 39 -41 82 0
-7 -16 -26 -63 0
-28 -32 53 64 0
11 -13 -55 -102 0
-27 43 -45 -108 0
1 10 -35 49 0
-43 45 65 84 0
53 81 -96 101 0
26 -44 -47 103 0
-2 97 -98 103 0
-32 -39 -59 -85 0
-9 -35 -62 -105 0
-8 -10 -41 -92 0
-5 8 -80 91 0
3 11 57 87 0
1 -6 84 96 0
29 -89 -96 108 0
35 -37 53 68 0
-14 25 -53 108 0
-63 67 -101 104 0
6 9 -31 -97 0
-19 -54 81 105 0
-32 43 47 -108 0
-1 8 -23 41 0
18 -44 -80 -87 0
15 17 22 60 0
-15 -55 -62 -92 0
49 -54 -68 -77 0
11 46 -78 80 0
26 -65 -108 110 0
-4 27 -86 95 0
-5 9 -103 -109 0
-20 37 38 62 0
-13 -57 -63 -64 0
-20 30 42 60 0
-31 -87 -102 -103 0
1 -7 11 -42 0
2 32 -85 -100 0
-52 57 -60 -82 0
12 49 77 -103 0
-5 28 45 -64 0
-36 49 -53 84 0
53 -95 96 -101 0
-84 -102 105 106 0
-5 72 78 -97 0
12 14 58 -98 0
3 -23 -89 -103 0
-1 -23 99 100 0
21 -31 -50 -102 0
11 13 15 -33 0
-30 53 67 85 0
-41 -50 -79 85 0
-7 -12 -62 107 0
24 40 46 -95 0
-5 7 -75 102 0
-16 23 -40 56 0
30 32 50 -106 0
-17 28 -60 96 0
-59 85 -91 -97 0
-48 73 -90 91 0
56 -88 109 -110 0
-5 -15 57 67 0
8 -51 -58 102 0
12 18 -40 -99 0
40 53 -55 83 0
-59 62 69 -88 0
5 -6 -52 -69 0
27 50 61 -103 0
25 -47 -84 -94 0
14 -15 39 -63 0
-33 -35 -39 -59 0
-25 -46 66 100 0
-13 -81 84 106 0
-1 33 51 54 0
-37 65 75 101 0
45 59 -78 91 0
79 93 -95 103 0
45 -61 93 -98 0
46 65 74 -77 0
-15 17 -70 76 0
51 56 -64 -78 0
-5 33 41 52 0
-33 36 83 -90 0
-69 -98 -99 -100 0
-25 46 -73 -98 0
-9 -20 51 -71 0
5 29 -86 -106 0
-9 28 51 -75 0
-23 -35 81 -90 0
-28 -29 93 100 0
7 -12 40 86 0
33 -39 44 -103 0
4 -60 -65 -96 0
21 -26 58 110 0
-41 51 -57 68 0
-8 42 -69 -95 0
6 -9 28 110 0
-6 -34 37 97 0
-38 54 -100 108 0
-5 -93 -98 100 0
-27 33 73 98 0
26 73 -107 108 0
3 89 -99 -105 0
24 30 73 -80 0
-39 -42 -49 109 0
40 -68 78 104 0
5 37 -92 96 0
-21 23 -68 69 0
-40 -48 71 110 0
-29 40 -72 -98 0
51 76 84 -93 0
5 -22 27 -50 0
1 50 -63 -66 0
49 -55 -65 -89 0
25 -27 52 -107 0
25 62 71 -107 0
9 63 -73 -74 0
-19 -83 89 -93 0
70 -86 90 -101 0
-55 76 84 88 0
-11 -15 -87 90 0
-38 50 -52 -57 0
-37 87 -103 108 0
-21 -30 -85 91 0
27 34 -56 99 0
25 32 -67 83 0
-21 49 69 96 0
44 -58 -91 -101 0
12 -33 -46 89 0
14 -59 -78 106 0
15 39 56 66 0
21 50 61 75 0
-49 -54 76 -90 0
-41 97 100 -101 0
3 69 87 105 0
8 56 -71 81 0
5 67 87 -104 0
26 74 106 107 0
62 63 -83 92 0
40 59 68 72 0
39 -72 -75 -81 0
-28 -44 -66 -104 0
-23 48 74 109 0
-11 41 84 109 0
12 22 29 -77 0
6 24 -47 77 0
-7 72 -75 85 0
-15 37 -59 90 0
-4 -7 14 -57 0
64 72 -78 -83 0
-8 44 55 -90 0
30 -81 107 109 0
-22 -26 -73 -101 0
11 -57 -60 67 0
21 40 48 -88 0
-7 -33 44 -49 0
-14 38 -41 49 0
1 -13 16 41 0
2 -7 -21 39 0
21 27 67 102 0
-25 -35 67 99 0
-25 -48 -72 -78 0
30 -31 73 100 0
19 -24 52 66 0
-4 -5 23 75 0
4 7 -33 83 0
10 -59 95 -105 0
17 -52 59 94 0
-1 -42 68 92 0
-67 -74 -81 96 0
-22 -26 -93 110 0
9 21 -38 -95 0
17 52 60 -69 0
-11 -30 41 69 0
-8 -60 -76 101 0
-20 -48 56 98 0
17 -19 32 -90 0
11 -58 -104 109 0
-15 -34 -46 -73 0
-30 -54 65 76 0
50 55 -64 -71 0
-12 35 -64 -65 0
-12 33 56 77 0
59 80 88 -103 0
-37 42 55 -110 0
-19 -56 -58 -83 0
22 55 84 99 0
24 -38 -49 -81 0
49 -59 72 -91 0
35 -45 57 -91 0
3 11 -17 -19 0
-6 -10 -70 -75 0
2 -21 -46 65 0
21 30 31 50 0
-3 45 55 85 0
-12 -19 98 -110 0
7 15 59 104 0
66 97 100 105 0
-4 27 48 -94 0
-24 -40 -55 -56 0
39 -49 86 98 0
2 16 -42 -93 0
22 25 77 -97 0
-15 37 62 -71 0
17 37 -71 72 0
-14 -91 94 -104 0
49 83 86 -94 0
2 -34 -85 108 0
1 -61 81 -96 0
13 58 104 106 0
-63 74 101 109 0
-55 63 103 -106 0
-34 35 36 -40 0
30 -60 -84 89 0
8 -52 -61 74 0
53 -56 -64 -91 0
-75 -76 94 -106 0
6 -73 -78 -109 0
11 67 -75 79 0
-3 87 103 -110 0
-39 -70 -75 76 0
43 49 82 -100 0
-39 53 72 103 0
32 -42 -84 -103 0
-22 70 88 -98 0
-32 86 -92 -96 0
2 -83 -103 -106 0
41 47 -71 -96 0
-33 -66 69 -75 0
1 -13 -33 54 0
-12 -25 59 -65 0
-15 42 48 -81 0
-31 -53 -69 76 0
12 -51 78 -102 0
2 -4 -10 91 0
17 33 90 -91 0
-12 18 19 -67 0
-17 32 33 39 0
-2 80 -83 -100 0
39 69 -77 87 0
15 33 -44 -54 0
-35 -44 -51 54 0
3 -57 92 -107 0
-20 -22 -44 -93 0
33 -59 68 -106 0
25 -42 -63 79 0
37 60 -79 93 0
3 -65 -70 -84 0
-4 -49 72 -93 0
-1 -7 11 -57 0
40 74 -75 91 0
22 -23 32 94 0
-44 -62 -65 -85 0
7 -21 41 98 0
-40 -66 92 -99 0
-4 -5 31 -95 0
-38 -39 49 -80 0
38 -42 -57 -99 0
-28 -29 41 -110 0
-20 -72 93 -99 0
-2 58 -68 72 0
28 -36 -87 102 0
4 -23 59 -99 0
12 -81 88 -89 0
8 21 43 79 0
-21 55 -70 75 0
-54 77 -88 -99 0
-33 38 88 95 0
3 42 56 109 0
