c description: Random 3-CNF over 500 variables and 2100 clauses
c generator: CNFgen (0.9.5)
c copyright: (C) 2012-2026 Massimo Lauria <massimo.lauria@uniroma1.it>
c url: https://massimolauria.net/cnfgen
c
p cnf 500 2100
-58 84 247 0
187 -231 315 0
3 424 466 0
54 -315 -432 0
-187 -208 234 0
48 -207 -350 0
-117 122 178 0
25 -124 -455 0
-2 -103 -128 0
53 105 319 0
-28 -242 309 0
220 -283 438 0
-104 -368 -426 0
3 266 292 0
95 318 471 0
-261 298 -340 0
-41 -58 248 0
48 -93 -358 0
46 -193 347 0
107 -244 -315 0
-178 -327 498 0
-179 270 -429 0
-14 -405 443 0
-53 136 -250 0
225 377 -427 0
-88 194 350 0
315 344 463 0
-133 180 -280 0
119 243 467 0
179 271 387 0
377 -469 481 0
-109 -292 374 0
-61 -89 203 0
76 224 420 0
-203 221 -256 0
30 334 341 0
41 -81 384 0
32 -141 -248 0
-280 341 493 0
-67 -154 334 0
-45 -75 383 0
-130 207 -401 0
-67 317 -398 0
-26 -312 436 0
164 240 -494 0
38 -226 -310 0
77 111 -195 0
187 236 -420 0
68 -402 -429 0
17 -80 -400 0
-120 -133 -192 0
-104 121 255 0
-9 187 -493 0
25 -77 -214 0
252 -356 371 0
229 -271 -470 0
112 128 355 0
205 429 477 0
-86 -204 348 0
-96 -117 429 0
107 -171 -236 0
280 -373 463 0
188 247 361 0
-267 -302 -370 0
151 -179 457 0
-19 203 397 0
212 245 300 0
-32 39 300 0
120 343 -444 0
-284 -326 -447 0
-39 400 496 0
225 -282 307 0
-178 -202 -261 0
-163 166 244 0
2 307 -309 0
297 332 367 0
237 -353 456 0
88 -430 453 0
135 369 497 0
52 -93 114 0
82 273 -279 0
-60 73 -461 0
-73 90 -372 0
27 -200 290 0
-152 -403 -434 0
-248 -320 437 0
14 -113 393 0
13 131 304 0
-72 -107 -333 0
389 422 -463 0
-204 -291 -315 0
-10 179 -191 0
-109 156 486 0
-152 -161 330 0
-79 209 326 0
70 -194 -460 0
-62 114 -482 0
133 243 412 0
251 -386 433 0
181 249 312 0
-23 -145 -300 0
-155 -274 -447 0
-81 315 -425 0
146 340 -431 0
46 -272 391 0
-108 134 -177 0
79 -229 408 0
-219 -246 452 0
308 313 -464 0
-11 254 393 0
99 254 411 0
106 -189 -473 0
-223 -324 438 0
8 82 -201 0
9 52 389 0
88 -284 -381 0
46 -379 -399 0
105 -156 476 0
-88 -171 297 0
-96 -225 318 0
209 246 332 0
-118 131 272 0
-99 -129 325 0
-30 79 402 0
44 -196 -448 0
102 245 473 0
17 178 -472 0
-8 -41 -298 0
30 -89 -409 0
29 80 -113 0
-132 -250 354 0
-382 389 434 0
-189 310 -498 0
-302 424 469 0
271 366 458 0
-235 -290 -426 0
23 -302 -352 0
233 242 -263 0
240 -263 -459 0
-188 229 417 0
171 325 398 0
275 -295 355 0
95 371 423 0
61 -232 -416 0
15 236 -449 0
-194 242 -260 0
83 -162 -422 0
-88 216 384 0
-55 193 323 0
172 177 -459 0
-66 316 477 0
-45 149 -203 0
-110 448 471 0
214 -437 -439 0
265 -399 -484 0
70 -325 350 0
258 -372 382 0
12 -375 499 0
-243 -348 -381 0
2 93 280 0
-57 -197 -405 0
295 -381 429 0
-40 -119 -490 0
35 306 394 0
52 -230 401 0
25 -200 -295 0
-246 -320 434 0
-49 86 -320 0
-346 -355 -422 0
34 80 158 0
72 81 -474 0
73 -179 442 0
55 -322 490 0
35 56 -87 0
154 221 477 0
59 417 482 0
74 -101 283 0
-105 -111 -443 0
-17 154 321 0
-171 -182 -436 0
-7 25 -213 0
351 -373 486 0
-15 125 -211 0
222 -346 -398 0
62 140 -456 0
82 -347 490 0
33 148 337 0
-110 -258 404 0
-77 432 476 0
31 255 -470 0
140 308 309 0
-324 365 -399 0
239 326 -490 0
-280 373 470 0
-196 -259 277 0
-2 -45 300 0
102 -228 319 0
-13 -81 332 0
-249 -286 -348 0
1 214 -492 0
-91 270 -291 0
-248 331 -474 0
8 -213 -275 0
190 274 362 0
-296 -310 -345 0
-231 300 374 0
7 350 464 0
28 -435 466 0
-6 -135 393 0
-126 201 -464 0
185 312 457 0
-1 98 -346 0
107 196 411 0
232 -363 -434 0
-37 323 -416 0
-53 99 292 0
-59 -136 159 0
-64 -437 444 0
23 -57 304 0
82 -107 426 0
-227 -327 -470 0
-32 -65 414 0
-51 220 338 0
-144 179 182 0
-158 -183 208 0
-234 417 -422 0
74 85 -424 0
-100 337 390 0
-20 116 -280 0
-213 -277 470 0
146 436 454 0
-217 -321 -341 0
3 9 -378 0
-11 212 -284 0
-266 378 -409 0
-76 159 370 0
-46 -295 356 0
-271 -275 320 0
76 261 -437 0
220 -252 -290 0
183 -191 254 0
-160 -341 392 0
46 -103 141 0
180 226 255 0
96 257 489 0
-134 -191 331 0
92 130 459 0
-61 -267 -278 0
62 70 244 0
90 239 446 0
231 -275 453 0
284 299 -414 0
-272 289 -333 0
-27 104 109 0
218 380 492 0
87 104 206 0
-107 -126 342 0
57 -193 -329 0
-5 -8 -285 0
-101 315 472 0
85 221 -345 0
-76 -223 320 0
230 309 390 0
2 -90 357 0
9 -13 -231 0
-138 229 -405 0
-39 -158 -288 0
149 -216 -367 0
121 193 -271 0
-247 353 -373 0
-186 -193 -442 0
-48 221 355 0
13 95 -255 0
-71 429 455 0
-15 -149 -380 0
45 -158 -414 0
63 188 293 0
81 -283 499 0
324 341 -422 0
232 244 -386 0
30 -75 -323 0
127 214 236 0
-100 131 -491 0
-336 -370 -473 0
23 -387 410 0
-31 -100 -473 0
-93 288 -446 0
-294 -335 -352 0
-161 328 -500 0
-31 412 -481 0
67 -95 -361 0
6 297 486 0
-104 414 -435 0
30 -185 -482 0
10 -199 416 0
139 -320 323 0
-1 -229 288 0
-105 -194 -327 0
-49 -68 -153 0
-102 123 217 0
-38 144 442 0
-230 324 -380 0
-181 329 358 0
194 199 -353 0
-114 164 421 0
-110 325 453 0
-121 136 -202 0
239 306 499 0
90 -186 211 0
156 -373 -432 0
132 -383 -442 0
-41 -66 -465 0
18 -62 395 0
-77 312 500 0
118 -207 -418 0
-242 293 426 0
-98 350 -375 0
8 101 -310 0
-54 232 -393 0
127 -138 172 0
11 -187 -342 0
157 -363 -424 0
108 -324 411 0
52 -125 218 0
-161 385 -432 0
-233 243 340 0
-34 -357 -459 0
34 -137 -276 0
-8 -129 240 0
18 -489 493 0
156 -251 -299 0
159 300 -439 0
58 93 -390 0
152 246 443 0
46 -98 180 0
192 -275 -315 0
197 -268 339 0
122 135 467 0
21 257 467 0
70 421 485 0
-384 442 -460 0
-140 -313 -376 0
70 -118 -408 0
-128 340 -399 0
1 49 -70 0
-59 213 436 0
398 436 -473 0
75 -200 426 0
-274 414 -477 0
-191 318 -457 0
286 425 -474 0
-78 145 304 0
-16 -129 -225 0
-99 277 378 0
-46 -252 -325 0
135 -149 -209 0
158 -332 412 0
-4 126 232 0
32 269 -388 0
107 -461 -477 0
-148 244 -457 0
-252 285 463 0
-21 -226 -407 0
11 -81 -98 0
206 247 252 0
-96 194 488 0
-136 275 -493 0
-115 -296 306 0
-241 -330 -352 0
-127 202 -344 0
195 210 275 0
71 82 -365 0
3 207 -324 0
15 206 461 0
-33 109 321 0
159 228 323 0
85 196 -425 0
117 -154 -180 0
210 -380 -461 0
90 -358 -493 0
-33 -363 -444 0
-223 -359 -394 0
127 -191 -334 0
-117 -127 -385 0
375 395 410 0
87 -287 323 0
16 -339 391 0
227 452 -493 0
192 -401 439 0
15 324 346 0
-28 -44 294 0
278 -410 469 0
87 255 342 0
-245 -366 -381 0
-114 280 394 0
118 307 317 0
-282 301 -384 0
73 176 316 0
27 108 293 0
30 198 396 0
-345 -419 -456 0
250 388 -389 0
-360 375 379 0
106 399 -424 0
-237 -242 418 0
116 139 -484 0
-81 -208 269 0
121 -243 -261 0
-31 270 328 0
-355 -356 406 0
255 -284 357 0
192 219 499 0
-295 414 498 0
121 204 318 0
-68 -364 500 0
98 137 -488 0
21 -203 -325 0
6 -171 -421 0
-282 -330 -451 0
58 304 479 0
130 -140 481 0
29 400 421 0
182 265 -330 0
301 -489 -496 0
114 451 490 0
-234 303 477 0
-224 -277 -332 0
-24 -170 -463 0
-4 59 110 0
214 364 471 0
-27 213 399 0
-36 230 322 0
39 179 -252 0
-237 -243 -453 0
201 310 -403 0
24 -91 -300 0
-133 335 438 0
96 -183 314 0
-215 -234 412 0
76 -211 244 0
-393 442 -445 0
-8 275 428 0
-120 211 -484 0
-9 -174 -226 0
85 109 244 0
-14 24 42 0
197 -258 488 0
-119 -123 -395 0
-170 -225 263 0
-309 -347 430 0
-374 -417 -481 0
161 177 -298 0
351 -427 457 0
59 151 234 0
170 -299 349 0
-305 -366 373 0
32 252 -294 0
-50 -216 462 0
-333 -396 425 0
-353 -445 -469 0
210 -457 -486 0
-56 63 348 0
124 272 -300 0
32 234 -399 0
127 -239 -317 0
-209 406 429 0
133 323 -366 0
60 -140 286 0
300 459 466 0
-138 -202 -490 0
-49 -364 487 0
-217 -268 365 0
124 -187 -424 0
-144 -341 362 0
31 204 -344 0
284 -401 499 0
-177 178 476 0
-68 -89 457 0
-18 153 -376 0
39 130 -488 0
111 285 389 0
285 289 327 0
165 283 -312 0
274 323 356 0
-102 218 -248 0
27 261 -315 0
-161 252 465 0
103 176 -343 0
199 258 482 0
147 -287 424 0
5 95 170 0
137 -308 400 0
-47 -123 -306 0
232 -259 -313 0
99 -332 -347 0
178 335 396 0
196 -216 -295 0
-70 -282 -404 0
-170 -469 497 0
-4 -7 -70 0
-249 344 486 0
14 250 486 0
144 155 263 0
76 -396 -449 0
92 175 -314 0
113 -230 378 0
-77 -207 -210 0
79 -373 456 0
193 284 441 0
-200 225 -228 0
37 150 -369 0
203 -370 -439 0
-247 -330 418 0
175 463 -466 0
64 -141 157 0
-193 -256 -433 0
179 -282 402 0
46 165 364 0
13 16 323 0
-8 -158 319 0
-73 -87 329 0
60 123 -230 0
-144 -295 392 0
-282 -450 -472 0
-124 401 -431 0
-121 -352 -430 0
-36 -55 225 0
-395 439 460 0
7 -257 425 0
-53 382 -386 0
13 -312 345 0
166 301 378 0
13 114 -491 0
170 232 -267 0
202 340 438 0
-264 -338 -387 0
201 -321 496 0
14 -32 -398 0
-51 -410 450 0
62 381 417 0
92 237 294 0
-69 -73 -401 0
73 -470 -496 0
-218 373 405 0
-168 -265 286 0
-185 -207 469 0
153 222 357 0
103 -368 -375 0
-22 38 197 0
-342 -357 460 0
177 323 -380 0
170 -267 -459 0
-174 198 -369 0
283 353 -439 0
116 452 -460 0
35 202 -238 0
-61 -241 -370 0
93 285 -406 0
-222 -345 490 0
120 222 444 0
108 111 -117 0
-209 390 -449 0
30 -62 76 0
-11 -44 -77 0
-130 -314 -487 0
17 115 417 0
-144 -253 286 0
-222 366 -500 0
-28 325 -455 0
-192 -407 -431 0
-143 -203 -405 0
-36 280 362 0
26 245 410 0
-28 -220 -470 0
257 258 396 0
-95 129 359 0
-128 -249 -494 0
153 -267 382 0
-138 357 -487 0
316 338 497 0
92 214 -411 0
2 302 -439 0
-4 329 466 0
75 166 -307 0
-17 -76 -265 0
74 234 239 0
324 -469 -493 0
18 283 -495 0
203 -250 288 0
61 264 -376 0
-292 -424 452 0
89 -252 -350 0
-61 -70 118 0
27 260 -359 0
-156 -458 479 0
-136 -284 -398 0
-175 -202 -473 0
106 159 -408 0
-147 173 -397 0
32 -240 421 0
-212 -215 470 0
191 -345 -369 0
-46 -186 -196 0
-154 -162 202 0
169 274 312 0
235 279 -398 0
63 -288 -371 0
-288 433 -461 0
97 288 354 0
-25 299 -403 0
209 467 500 0
103 -314 -345 0
-23 59 -371 0
-2 -241 348 0
-93 -262 264 0
95 -309 332 0
-111 325 494 0
-115 207 -463 0
54 93 -275 0
-327 346 -411 0
55 -59 188 0
-44 -238 401 0
191 305 459 0
158 -280 -311 0
58 -140 208 0
100 163 231 0
-105 131 354 0
-156 443 -469 0
-92 -139 281 0
-82 191 217 0
-233 -245 -287 0
238 339 469 0
58 -463 -495 0
-18 320 -433 0
50 260 -466 0
178 -333 -492 0
101 157 -218 0
-63 -293 320 0
-112 280 -297 0
-101 -102 -319 0
102 -311 -491 0
30 255 296 0
-258 337 466 0
-209 -367 -412 0
-24 -50 363 0
-267 347 -414 0
-25 57 246 0
22 224 400 0
64 175 -367 0
-19 291 -319 0
-71 79 334 0
-39 350 -399 0
-119 -271 442 0
261 333 -428 0
-163 -184 424 0
-107 120 153 0
-121 -127 -371 0
-64 -149 -350 0
-111 -156 395 0
-114 168 204 0
-217 -389 -395 0
-171 -257 -386 0
-92 181 -394 0
14 168 -478 0
-313 362 -404 0
52 75 -122 0
-180 -346 -386 0
122 -303 -305 0
-103 155 -379 0
174 271 -299 0
231 298 -413 0
-244 -411 -416 0
-205 -238 -324 0
-46 66 175 0
304 309 -340 0
-87 216 -320 0
-138 255 -285 0
8 64 436 0
-262 -319 474 0
-5 23 489 0
148 -279 -426 0
-46 -180 431 0
87 -350 412 0
241 374 -451 0
-2 49 103 0
-121 179 364 0
-64 -96 -366 0
40 -48 -321 0
-339 -469 -497 0
-61 83 -352 0
66 188 -474 0
183 330 358 0
40 -98 -252 0
-1 -468 477 0
50 -117 145 0
-132 -186 444 0
-37 -106 -355 0
307 -386 -474 0
33 -297 -391 0
82 263 360 0
-234 -275 379 0
-165 218 444 0
116 263 416 0
162 -235 466 0
80 398 486 0
159 255 -432 0
-142 175 443 0
-74 102 437 0
-10 109 -152 0
92 -159 338 0
-160 -229 -393 0
-75 105 130 0
100 156 -461 0
2 242 396 0
33 -99 394 0
-13 -152 -476 0
165 219 -278 0
13 278 -435 0
218 414 429 0
139 -314 486 0
-187 234 325 0
161 218 -365 0
18 93 478 0
-61 -484 498 0
378 467 -469 0
-119 320 409 0
-54 233 447 0
-137 372 -434 0
78 130 250 0
-174 187 327 0
-154 241 -315 0
-28 183 -499 0
-64 -70 -499 0
-16 -80 346 0
-62 120 -443 0
61 -84 199 0
177 218 453 0
-159 -253 -256 0
-7 -43 318 0
50 -267 -412 0
107 -327 -493 0
-8 -209 -471 0
-124 -319 -434 0
-122 256 257 0
-259 -273 -328 0
85 412 498 0
-10 86 270 0
364 -373 374 0
65 112 387 0
60 -166 -217 0
-94 -302 -496 0
31 114 -206 0
-151 297 342 0
-156 387 393 0
-271 299 -435 0
103 -394 489 0
267 -297 445 0
165 -176 -307 0
106 263 -423 0
-322 -395 -454 0
99 -194 -316 0
185 -342 343 0
-114 -136 174 0
95 -153 427 0
34 -121 125 0
-101 -193 -257 0
-18 23 324 0
244 -299 407 0
32 221 443 0
-139 -321 367 0
-282 -407 -484 0
120 225 356 0
-186 213 499 0
281 -425 -466 0
92 169 -468 0
52 -165 443 0
-74 339 448 0
-182 -270 -461 0
69 -260 277 0
16 139 -277 0
75 -166 358 0
-112 -274 465 0
-74 -289 -369 0
316 317 -365 0
156 -320 -352 0
80 272 412 0
-43 -290 314 0
-256 -402 427 0
265 -427 -488 0
-200 -466 487 0
-258 393 460 0
-95 -173 -386 0
-129 -186 -429 0
108 -292 433 0
-162 -376 -387 0
-103 -398 -416 0
157 -228 310 0
72 -150 346 0
27 73 -339 0
145 -331 479 0
115 162 -485 0
217 -235 -323 0
222 348 -438 0
56 348 -494 0
-76 -397 399 0
115 -421 -426 0
70 -209 350 0
-147 -199 419 0
36 51 -477 0
99 -133 -162 0
36 77 469 0
-135 -163 483 0
41 -80 -261 0
-182 -257 349 0
-9 47 -401 0
-18 -217 -274 0
-377 -388 415 0
29 90 -212 0
-48 -427 490 0
188 -229 -372 0
-57 396 -493 0
-382 473 -484 0
-67 -85 -232 0
-74 236 -457 0
-25 -288 -430 0
111 -210 -382 0
-170 336 -378 0
28 -39 -446 0
-148 315 440 0
66 -171 -331 0
60 120 166 0
56 -241 -377 0
-15 -27 -409 0
-247 -329 394 0
86 -265 -490 0
254 -334 -414 0
28 431 450 0
95 -161 453 0
-228 406 -471 0
-20 238 476 0
-201 387 442 0
-18 -35 -145 0
91 246 -392 0
-160 341 407 0
62 266 -465 0
-63 -154 388 0
-45 61 -334 0
90 -164 -191 0
-2 -29 463 0
-66 291 -436 0
85 -101 -206 0
236 -256 -349 0
-319 456 471 0
-37 41 -420 0
91 -157 225 0
-79 248 -387 0
-196 316 403 0
-169 390 474 0
86 361 -464 0
224 -238 457 0
290 -307 -350 0
-205 281 -295 0
92 -230 444 0
-51 -373 490 0
-134 -405 439 0
220 -295 -357 0
38 141 211 0
173 429 -459 0
216 -262 -349 0
36 105 308 0
107 187 -400 0
-9 -192 -234 0
-12 109 349 0
-90 -92 223 0
-43 -190 -367 0
-133 -198 201 0
-45 -188 191 0
252 -315 479 0
-127 360 -447 0
206 239 -379 0
260 -432 -469 0
-118 202 -478 0
-101 135 231 0
56 -103 258 0
-129 -213 -421 0
-214 -319 -416 0
-75 -396 454 0
8 -34 -350 0
-105 -289 -481 0
74 85 -489 0
1 299 346 0
92 -101 320 0
-164 -269 -323 0
-474 491 -497 0
-214 386 401 0
-98 169 270 0
54 141 367 0
16 -151 -184 0
-166 292 -327 0
-337 354 -372 0
-238 305 339 0
447 454 -495 0
241 347 491 0
-63 212 419 0
-102 -213 345 0
-18 97 -131 0
-132 -208 -290 0
-6 294 -476 0
29 -422 -426 0
10 -72 -367 0
-163 218 -222 0
118 306 -470 0
-230 330 -422 0
230 -298 444 0
-16 243 -476 0
-220 -246 -300 0
-19 33 -146 0
73 -86 -435 0
280 -356 -406 0
145 -175 -488 0
419 428 466 0
79 -283 -331 0
66 -133 206 0
9 -169 355 0
-241 -398 -459 0
21 -120 -309 0
205 348 -476 0
-50 113 -449 0
240 317 403 0
-103 136 297 0
-95 -400 464 0
132 163 195 0
-36 -402 -472 0
-50 220 -466 0
33 -99 -200 0
184 288 353 0
168 -268 -359 0
-111 -235 386 0
-24 274 488 0
-164 213 348 0
-240 244 -481 0
160 390 -392 0
95 168 -190 0
-181 -249 -351 0
-104 117 358 0
-60 212 -471 0
-90 -173 409 0
152 238 371 0
107 -155 -218 0
-20 -170 496 0
-211 348 380 0
-124 150 -262 0
192 -403 -408 0
-89 131 483 0
121 -135 254 0
-108 -184 397 0
271 278 387 0
6 297 433 0
-54 150 420 0
-41 -310 484 0
-54 -77 173 0
-154 -258 406 0
125 253 268 0
29 -417 486 0
-14 -227 -321 0
-2 38 -171 0
8 -127 276 0
-9 -56 -464 0
-339 378 -479 0
-292 395 -423 0
20 -384 -402 0
-148 426 472 0
-214 224 432 0
46 -271 472 0
285 -331 379 0
211 -336 439 0
-137 -145 -366 0
107 -402 448 0
-100 -176 -378 0
-138 -443 483 0
21 227 453 0
46 197 -399 0
-47 -232 251 0
-229 442 -460 0
258 302 -348 0
94 137 -385 0
335 352 -388 0
-308 -309 383 0
60 239 467 0
257 261 -377 0
-44 -185 486 0
-218 309 311 0
23 -157 -261 0
-120 150 -260 0
-372 450 -488 0
-311 -341 -481 0
-47 -267 479 0
-18 219 348 0
-40 126 -484 0
-88 193 383 0
-269 377 -403 0
-78 -404 -425 0
-23 174 185 0
260 -468 485 0
-155 206 -289 0
42 226 319 0
3 -131 -294 0
252 368 483 0
-37 -442 500 0
-151 -159 178 0
-205 237 411 0
349 445 -450 0
-101 -128 189 0
-51 -186 -281 0
-220 -309 464 0
-141 -165 -349 0
-78 -254 -354 0
134 -327 -345 0
86 -100 385 0
-15 102 372 0
257 -366 500 0
-127 312 412 0
271 387 442 0
89 -142 -496 0
-16 -62 -364 0
194 -200 476 0
-37 221 231 0
-25 195 -203 0
65 -270 -369 0
276 446 481 0
41 45 -439 0
207 319 331 0
-83 -215 227 0
108 -242 446 0
-143 -175 376 0
-155 -212 375 0
82 -187 220 0
-4 -182 -276 0
147 472 -483 0
195 -226 -235 0
138 410 -489 0
-97 211 479 0
15 -344 495 0
45 -491 -492 0
302 323 456 0
281 -351 -416 0
207 343 408 0
-228 249 -490 0
-155 468 496 0
-148 154 -163 0
67 -289 -292 0
-28 30 149 0
49 158 189 0
49 -249 302 0
58 268 -498 0
-276 -460 -483 0
-92 376 424 0
-217 375 410 0
268 340 456 0
218 -240 -355 0
-71 -342 -484 0
115 117 292 0
150 -435 -464 0
114 234 -487 0
-190 373 -425 0
-205 272 -450 0
-325 350 431 0
-12 -90 359 0
21 136 -261 0
-26 310 487 0
47 -337 470 0
-321 -336 -384 0
-52 89 430 0
-259 270 -365 0
117 -231 372 0
28 -119 -167 0
63 197 -367 0
-30 279 -382 0
276 -450 -486 0
-33 184 367 0
-44 130 -301 0
230 -316 410 0
172 -474 -477 0
118 318 -379 0
14 -141 -353 0
233 -338 -397 0
-12 223 -464 0
-14 86 188 0
181 248 -499 0
-209 386 387 0
24 62 167 0
-153 -317 -475 0
33 -335 -350 0
152 -171 470 0
40 352 -422 0
-185 -451 -499 0
-110 -115 350 0
137 290 458 0
33 -256 493 0
42 265 -286 0
90 -290 -426 0
-165 -400 -416 0
149 -152 449 0
112 -276 -299 0
20 46 -169 0
325 -408 441 0
127 -398 -478 0
-35 -278 287 0
-201 447 -483 0
-27 68 193 0
3 123 393 0
52 250 -494 0
174 228 394 0
-209 243 321 0
62 310 -358 0
277 -346 -405 0
-173 -234 -285 0
-205 -348 400 0
116 -219 -252 0
-207 303 420 0
-13 -305 346 0
-17 -237 415 0
-104 -205 233 0
158 -212 362 0
45 289 -393 0
-108 170 -400 0
-151 203 395 0
113 222 313 0
-306 -309 -388 0
-247 442 459 0
111 168 -330 0
240 386 -465 0
45 -126 -449 0
38 73 343 0
289 -361 410 0
203 252 -390 0
-129 -144 390 0
166 199 -288 0
57 -197 -372 0
-386 393 430 0
17 -22 -500 0
-123 -310 -486 0
-60 275 475 0
-43 -67 -296 0
245 355 475 0
288 352 421 0
226 -294 -346 0
-141 162 301 0
298 -394 477 0
28 -364 -500 0
-28 -245 287 0
-162 453 -494 0
93 -314 425 0
63 334 -489 0
37 -415 416 0
-68 285 331 0
-84 -179 375 0
-30 55 -213 0
-154 279 445 0
71 -284 449 0
-94 -124 422 0
103 -336 480 0
-92 -167 242 0
43 -108 -175 0
-272 334 477 0
6 79 218 0
-83 -312 -384 0
141 -188 -450 0
-269 310 382 0
-99 284 450 0
6 271 363 0
-88 109 355 0
38 -213 -274 0
12 271 -320 0
399 405 471 0
-91 355 461 0
-75 -102 204 0
236 341 -432 0
-219 220 355 0
-94 193 408 0
-185 -207 450 0
190 -283 421 0
28 408 433 0
137 202 -494 0
-150 -340 -345 0
-39 -426 -490 0
181 -278 -372 0
57 -232 334 0
-104 228 429 0
24 190 -227 0
-243 -445 496 0
-184 -397 464 0
356 424 -497 0
187 -188 441 0
-173 -265 476 0
47 -159 -174 0
-27 -282 463 0
-52 270 -272 0
-301 419 -447 0
-94 234 -284 0
301 336 -459 0
19 72 381 0
-50 -82 192 0
263 -389 -500 0
-215 -305 384 0
81 242 -322 0
271 -349 437 0
186 211 -325 0
-99 110 449 0
-2 -85 177 0
-140 332 -419 0
-227 261 298 0
44 -238 -439 0
132 420 496 0
206 -345 466 0
-52 157 396 0
-2 -348 -395 0
-9 -202 -458 0
101 -103 335 0
-203 -316 423 0
-57 109 191 0
-180 -241 -439 0
-109 313 -451 0
118 -144 -400 0
-37 -233 387 0
27 53 -148 0
-239 -362 -369 0
-50 -321 368 0
-123 138 364 0
-56 -97 440 0
-66 -254 -310 0
184 -211 304 0
128 -395 396 0
-141 -461 497 0
-216 -357 452 0
198 392 428 0
160 199 -264 0
-151 -197 270 0
-3 -155 459 0
9 250 -481 0
-117 300 399 0
27 -122 285 0
103 -412 433 0
124 -149 -343 0
172 -407 421 0
-78 -241 -489 0
19 304 381 0
325 452 -496 0
-145 306 458 0
-28 -77 -337 0
367 -444 -460 0
-33 124 -258 0
-64 96 -318 0
-32 -412 -458 0
39 100 -325 0
-253 381 -405 0
-159 214 -232 0
-102 284 -302 0
103 107 -393 0
-27 77 238 0
-261 273 365 0
-142 287 420 0
-252 280 -343 0
-66 -181 -203 0
22 197 -326 0
225 294 -311 0
-180 219 331 0
-6 -281 422 0
6 -233 397 0
-132 -266 -399 0
172 453 471 0
30 330 -352 0
10 288 -329 0
103 286 299 0
279 328 329 0
102 155 -335 0
225 277 406 0
-22 -132 326 0
314 469 492 0
-21 329 441 0
15 278 431 0
-107 -384 -416 0
68 213 -335 0
-16 -252 -497 0
-7 195 -320 0
-179 -335 470 0
-71 94 -413 0
-204 300 -436 0
169 -175 -190 0
169 -316 -391 0
-17 -172 -198 0
-96 -235 401 0
-160 209 -303 0
-45 183 407 0
-15 -334 483 0
-195 -239 459 0
-55 111 -254 0
169 -476 482 0
92 -208 -219 0
40 120 -141 0
-80 322 -330 0
184 244 -314 0
28 47 69 0
-180 -313 -413 0
207 249 378 0
61 -103 445 0
297 -309 355 0
164 -169 452 0
101 451 464 0
-95 270 311 0
-229 282 -384 0
53 -105 -362 0
-104 287 -288 0
18 138 -437 0
37 286 317 0
202 -253 411 0
-77 -330 -421 0
-57 103 -489 0
-41 107 -428 0
-314 354 -368 0
-188 -238 -272 0
56 -62 -212 0
-71 94 -468 0
221 315 430 0
4 -255 -444 0
4 -241 266 0
-23 329 442 0
-140 172 -207 0
112 -240 -326 0
-214 231 -304 0
-135 231 -315 0
-129 -298 -340 0
44 91 -371 0
113 159 -484 0
-104 229 -379 0
-31 -112 425 0
64 -94 -156 0
28 -212 285 0
-93 338 -389 0
5 -191 453 0
44 -99 -310 0
-16 -266 -326 0
-305 381 474 0
-173 254 419 0
-76 99 120 0
-133 183 405 0
141 -319 465 0
30 -148 395 0
73 -429 -486 0
363 407 -484 0
420 441 -487 0
-31 50 -289 0
-80 -293 382 0
11 268 485 0
-50 -342 -464 0
-102 302 -377 0
113 -268 -302 0
65 -284 -459 0
-72 315 326 0
-169 -310 -414 0
-63 140 352 0
47 94 -436 0
24 -473 480 0
212 -267 404 0
27 -237 -415 0
-46 208 -431 0
15 148 -403 0
-117 -230 -391 0
-249 304 -462 0
107 -233 -366 0
161 -178 277 0
-43 -351 442 0
-11 155 -274 0
-19 23 -136 0
4 -188 299 0
253 391 -424 0
-339 348 -467 0
-100 194 -259 0
108 -192 440 0
-136 203 320 0
26 155 198 0
-367 -446 -453 0
66 -172 180 0
-191 -316 466 0
-26 -209 375 0
127 256 -452 0
79 -345 -436 0
-101 110 -178 0
-96 -235 -409 0
49 -122 437 0
-144 -191 -299 0
6 190 -444 0
128 -440 496 0
-140 -312 467 0
-310 -320 448 0
-265 373 -478 0
20 -265 -424 0
-372 410 423 0
48 395 433 0
-365 -480 492 0
-190 374 398 0
57 239 -242 0
-173 372 -420 0
16 20 410 0
7 -342 406 0
-181 -191 306 0
-215 -230 -393 0
150 -186 -254 0
-135 -303 337 0
16 -69 203 0
36 -391 460 0
-87 -90 240 0
-63 -273 -291 0
-61 -363 -390 0
-15 -144 -417 0
-325 -399 443 0
-125 -341 -390 0
-116 435 -481 0
-40 -402 469 0
305 401 -463 0
127 -207 -241 0
85 -263 -459 0
192 -367 -419 0
-240 -334 -495 0
-55 -183 -480 0
2 62 473 0
180 199 -368 0
-282 299 -480 0
59 -306 314 0
120 215 -299 0
16 58 -344 0
-294 -341 -493 0
-181 -287 -299 0
-150 -162 -329 0
-112 -210 334 0
261 -420 -453 0
96 -415 489 0
-63 277 290 0
57 -428 446 0
14 311 -441 0
94 253 351 0
111 316 383 0
-55 132 -291 0
-252 -363 -389 0
16 91 343 0
-267 402 496 0
12 -46 -396 0
-63 328 -357 0
-15 16 -302 0
-171 -329 -490 0
225 -272 412 0
108 342 -475 0
-21 22 -462 0
-203 -230 -345 0
-128 -148 -328 0
-158 -339 372 0
-67 -108 -158 0
141 -314 -365 0
176 271 378 0
29 -179 204 0
-130 156 174 0
4 44 -422 0
-140 236 -422 0
86 -341 -442 0
-274 -381 -497 0
116 172 373 0
-113 -150 -364 0
120 211 -468 0
31 394 431 0
-212 396 -414 0
344 -484 -489 0
-192 376 -384 0
6 427 444 0
362 369 494 0
-1 379 -482 0
-67 72 289 0
164 359 -493 0
98 290 -307 0
-107 -455 482 0
58 -295 -427 0
-22 225 304 0
158 -225 308 0
-288 371 426 0
222 -389 390 0
-212 265 -345 0
102 218 -421 0
-102 -194 294 0
-5 -46 -148 0
182 340 -357 0
53 -175 -472 0
163 233 401 0
124 -398 -423 0
-35 -53 406 0
236 -300 488 0
-91 -136 -138 0
-198 240 -458 0
-137 -304 309 0
-138 -177 279 0
35 84 290 0
274 412 -418 0
-6 47 -469 0
172 343 465 0
81 -185 360 0
123 172 329 0
84 -310 461 0
104 226 -462 0
41 -216 352 0
-68 235 287 0
195 372 -404 0
-26 -160 -234 0
-57 85 344 0
144 -175 428 0
-180 -229 431 0
181 -368 -456 0
121 274 -331 0
-178 -454 -484 0
37 -457 -492 0
140 157 179 0
-257 413 497 0
97 -124 -176 0
-11 -323 350 0
-101 -200 475 0
-310 -321 421 0
-288 -394 -499 0
82 125 379 0
-66 82 293 0
252 -362 401 0
383 -462 473 0
-208 359 -428 0
-94 -294 456 0
-25 75 201 0
-70 -162 293 0
234 -307 402 0
-12 -117 323 0
-185 -249 364 0
186 -264 -289 0
160 -212 280 0
34 345 -463 0
-9 179 -336 0
69 -318 445 0
-258 -332 -408 0
15 316 -381 0
-338 -376 407 0
-75 -104 235 0
16 -269 -477 0
-13 -203 488 0
164 -397 -409 0
-2 -166 -386 0
-40 -202 -231 0
-32 -74 -464 0
238 -318 386 0
-245 272 -475 0
-24 294 433 0
-31 -398 -423 0
27 37 88 0
20 364 367 0
-99 103 -259 0
180 357 -485 0
-76 -77 88 0
-219 -281 326 0
264 355 466 0
170 315 451 0
121 -218 -446 0
-88 -114 -476 0
-268 298 -360 0
74 346 -421 0
-189 -342 445 0
147 -424 496 0
-218 -226 -321 0
-117 276 325 0
-135 -198 213 0
-189 355 -428 0
-110 328 -500 0
121 198 -367 0
-117 144 361 0
-175 243 -251 0
-109 -361 367 0
141 297 -436 0
271 -364 474 0
157 -242 250 0
-268 -303 426 0
321 420 -436 0
52 172 -293 0
-149 234 -236 0
-442 -482 -496 0
-101 456 471 0
65 92 443 0
-273 -359 -376 0
-72 223 -281 0
-9 475 495 0
107 116 371 0
-34 257 -390 0
-83 180 -348 0
-263 -266 -338 0
-22 -273 -447 0
-61 63 -248 0
-23 -180 -383 0
112 229 -339 0
12 -379 -418 0
-38 102 -498 0
267 -370 -498 0
195 -412 487 0
-227 -281 -486 0
168 -190 -311 0
-90 114 326 0
-103 209 326 0
58 -75 173 0
142 -155 275 0
229 360 -491 0
194 -241 -374 0
87 277 365 0
-70 -291 360 0
63 -373 -445 0
-70 -389 443 0
68 -303 419 0
5 -127 336 0
-15 162 -408 0
7 350 499 0
9 10 177 0
-301 -357 485 0
-2 21 22 0
-295 394 -474 0
-67 171 438 0
351 -477 494 0
-24 75 -495 0
118 -281 -453 0
108 -110 -329 0
-7 469 474 0
149 -223 -266 0
16 52 222 0
56 -135 141 0
-130 -221 241 0
-226 335 458 0
201 456 -487 0
25 -90 -112 0
14 -56 369 0
140 189 -261 0
242 267 312 0
-15 61 -99 0
118 192 -412 0
-40 399 -478 0
107 195 -372 0
-10 -152 -164 0
-69 173 266 0
151 -195 -224 0
-187 -405 -458 0
-126 265 383 0
-106 -123 322 0
-128 135 -202 0
311 -327 379 0
-34 191 268 0
413 449 -495 0
-262 311 -341 0
-19 -178 -273 0
447 460 483 0
-6 254 409 0
242 255 -256 0
3 21 457 0
276 349 447 0
-92 163 487 0
451 457 495 0
185 237 354 0
51 -207 306 0
68 278 416 0
-193 265 -298 0
22 416 492 0
-26 -213 476 0
-78 128 196 0
-281 -294 323 0
25 192 391 0
101 -218 480 0
-130 -316 450 0
33 180 -226 0
383 443 490 0
17 253 348 0
-22 95 -498 0
-38 -339 414 0
291 -367 404 0
-55 166 -235 0
10 -204 -399 0
137 -249 365 0
-152 -281 441 0
-238 -293 498 0
-33 358 424 0
152 -174 -197 0
59 223 -481 0
253 387 483 0
249 -292 -471 0
-157 189 380 0
-23 -235 267 0
342 395 456 0
-293 392 -465 0
-25 -52 148 0
268 -282 -348 0
-176 224 383 0
-264 451 -453 0
120 -122 272 0
-99 -178 475 0
339 390 407 0
77 190 271 0
272 334 438 0
-311 342 489 0
-334 -335 493 0
194 -260 275 0
-135 -293 -348 0
-82 282 -347 0
169 177 -342 0
-326 392 -428 0
46 188 -204 0
26 214 258 0
-154 -373 -387 0
-224 413 -481 0
-132 -216 -329 0
-11 -155 201 0
153 189 -228 0
171 -313 -404 0
32 168 236 0
-26 -162 -327 0
-142 174 202 0
-5 117 -124 0
-44 -242 -296 0
-58 221 -360 0
116 -443 458 0
272 420 434 0
16 191 -243 0
375 468 496 0
231 -302 -471 0
108 301 -483 0
111 -280 -405 0
-77 -175 185 0
172 207 -467 0
70 230 417 0
150 208 285 0
274 -330 432 0
427 448 -454 0
36 -54 421 0
-216 -273 -464 0
-128 481 482 0
-129 -149 -304 0
176 -227 465 0
131 307 454 0
76 358 369 0
73 194 487 0
-254 -409 -485 0
-149 233 316 0
29 248 251 0
32 -130 -237 0
-24 316 -402 0
-57 161 -199 0
-276 453 -462 0
140 294 -492 0
-3 -243 451 0
101 228 -236 0
-117 153 350 0
-139 -262 408 0
7 -192 428 0
-195 211 -498 0
-92 192 282 0
96 159 389 0
-11 228 455 0
-26 -79 -300 0
-131 -238 -497 0
117 -149 -184 0
40 -195 231 0
-171 -357 -425 0
218 -295 -388 0
-11 -279 -409 0
146 362 382 0
232 -265 324 0
25 84 444 0
-178 -395 466 0
58 303 440 0
-147 255 444 0
-321 345 -470 0
8 245 -302 0
28 -150 417 0
12 56 -271 0
30 -223 437 0
60 -163 384 0
161 442 -453 0
381 445 472 0
-119 -251 -340 0
-148 382 -392 0
198 -431 445 0
-228 256 -470 0
161 -318 -414 0
160 -360 -416 0
51 306 313 0
130 -169 -388 0
60 -240 362 0
130 -198 404 0
208 -486 -499 0
13 -261 363 0
-20 -282 379 0
9 -280 303 0
242 -322 491 0
174 -194 -469 0
-94 -448 -482 0
269 326 483 0
-254 355 -364 0
104 -464 470 0
-185 -469 -500 0
62 283 -400 0
256 424 -469 0
-28 335 -436 0
-10 -135 -176 0
117 217 345 0
39 201 -361 0
6 194 242 0
371 395 421 0
-104 -223 430 0
152 196 -408 0
-156 -209 -436 0
-96 277 471 0
-264 391 415 0
-35 -343 -372 0
105 -357 452 0
-71 107 406 0
-92 -209 472 0
57 173 -248 0
5 20 387 0
-86 410 -438 0
14 123 -450 0
-45 117 -349 0
-5 162 447 0
-140 203 -497 0
35 -53 -161 0
361 -394 -404 0
-28 -163 -478 0
-268 -298 401 0
18 -224 234 0
-57 -98 325 0
-205 210 -477 0
-12 -308 358 0
15 -296 -399 0
389 -429 -454 0
230 -246 371 0
-172 -180 242 0
-48 67 -364 0
22 207 439 0
34 -240 -263 0
-5 78 80 0
265 460 484 0
-97 185 -418 0
-32 97 192 0
295 384 -412 0
296 -402 -410 0
161 -215 -443 0
54 102 145 0
-309 432 485 0
-260 289 -438 0
22 -76 -105 0
207 392 461 0
138 217 -423 0
-315 -321 -328 0
-272 384 475 0
-30 -123 -285 0
113 165 -186 0
327 -484 -488 0
314 386 -490 0
283 -425 -439 0
-48 73 -426 0
-382 -464 -485 0
99 157 -320 0
-357 -396 413 0
-100 -272 440 0
105 338 -491 0
131 -399 499 0
226 425 -483 0
-29 155 354 0
154 -375 478 0
-248 257 318 0
-436 -448 -467 0
147 -202 358 0
287 -348 500 0
-259 392 460 0
208 -334 406 0
27 -35 -200 0
42 -101 333 0
17 30 246 0
-20 59 -242 0
190 -470 499 0
-37 -260 -371 0
-79 -211 457 0
-157 173 -319 0
44 -221 445 0
-2 246 -295 0
-302 -368 -417 0
-148 -474 478 0
-39 -324 -459 0
59 -60 482 0
-314 318 351 0
-94 102 379 0
217 -467 499 0
-50 -235 442 0
-87 -127 310 0
144 -179 391 0
61 390 447 0
60 -378 -422 0
56 123 -473 0
162 -265 -451 0
-143 -159 -225 0
2 -17 -90 0
-39 -111 -152 0
7 -289 -384 0
33 328 -356 0
-38 -147 -327 0
-205 264 -390 0
-45 202 -336 0
27 -202 416 0
-19 117 -457 0
-1 -64 398 0
231 -289 445 0
194 386 470 0
-324 438 -454 0
-27 361 384 0
87 230 284 0
-187 -217 260 0
51 -299 -308 0
-5 -26 493 0
-77 234 392 0
-48 68 122 0
235 292 -444 0
-48 -135 -251 0
-283 362 394 0
251 -330 345 0
-101 237 -364 0
39 -90 330 0
-4 204 214 0
16 115 267 0
-183 -410 485 0
139 -284 -317 0
-164 209 -227 0
-55 -238 -357 0
-31 402 -486 0
-41 -116 140 0
134 301 482 0
-30 60 363 0
276 -283 -391 0
158 395 -438 0
-126 -368 -491 0
-61 285 -487 0
147 -212 367 0
190 -462 478 0
-290 433 473 0
-6 -482 -491 0
58 420 -459 0
-62 142 -457 0
157 213 -398 0
-17 83 -398 0
-13 391 499 0
48 -355 420 0
38 -121 -470 0
43 111 -240 0
107 301 -379 0
181 295 -462 0
-167 -463 500 0
-131 -211 -218 0
-108 -120 155 0
136 334 442 0
-177 -295 381 0
201 -377 391 0
45 97 384 0
149 -160 -455 0
-192 -238 250 0
-164 228 484 0
290 479 -494 0
107 418 -449 0
158 271 -357 0
147 -186 -284 0
-56 383 -480 0
325 358 472 0
13 -44 -93 0
-43 -47 -238 0
276 -369 -397 0
246 316 -389 0
145 170 265 0
-230 -258 -300 0
-18 270 -404 0
38 303 -361 0
30 -187 352 0
77 343 -351 0
-61 -225 -247 0
-263 288 -484 0
224 -438 492 0
-165 -271 390 0
82 -402 486 0
-118 -350 364 0
61 68 -107 0
99 -195 -493 0
-47 -188 -494 0
-130 -355 454 0
-50 -316 -334 0
340 370 431 0
-11 -297 -359 0
-110 295 482 0
-270 -407 -408 0
294 350 352 0
76 84 -206 0
193 -383 423 0
59 86 -214 0
129 -292 386 0
-71 -301 -428 0
-69 85 500 0
-336 353 -361 0
-106 235 491 0
-166 241 397 0
56 349 -487 0
-15 -116 152 0
91 103 -148 0
-19 -275 400 0
-1 -281 357 0
9 -116 244 0
28 -295 441 0
-30 450 455 0
-181 -234 -413 0
-332 -354 461 0
9 -150 -192 0
-220 480 483 0
42 -86 408 0
18 -140 431 0
-66 -83 -114 0
11 -74 -474 0
94 155 -372 0
357 -462 -490 0
-122 167 205 0
-28 -105 440 0
4 -154 -168 0
9 227 310 0
38 -334 -355 0
160 -245 -445 0
-230 -371 411 0
9 109 353 0
172 215 366 0
27 29 114 0
-29 113 -405 0
-47 69 114 0
40 75 391 0
-60 255 485 0
211 -335 456 0
-67 282 433 0
79 305 392 0
105 -183 440 0
-68 -104 168 0
105 165 342 0
82 225 271 0
46 -98 -444 0
-5 -237 -266 0
47 -86 366 0
50 90 203 0
-46 -170 -332 0
13 57 -149 0
102 -256 276 0
-85 291 436 0
-280 314 -388 0
70 -402 -431 0
17 41 -169 0
130 145 191 0
-35 -321 -459 0
-174 -370 -490 0
-52 201 270 0
82 -210 -305 0
229 323 -361 0
-179 192 -303 0
-30 409 454 0
-5 -33 304 0
63 121 146 0
-86 -141 -375 0
-8 195 490 0
77 264 484 0
-396 411 498 0
-138 248 -449 0
-166 -381 -384 0
178 238 -486 0
-151 -284 -346 0
-234 257 425 0
63 -289 -325 0
39 -141 417 0
-84 -120 371 0
117 257 -453 0
-251 363 -463 0
4 134 325 0
148 -258 386 0
47 -270 429 0
-51 -379 -414 0
-214 304 343 0
-14 -69 463 0
-74 86 -130 0
112 249 -458 0
122 180 301 0
333 461 494 0
-21 -107 139 0
122 -181 -286 0
223 272 383 0
-209 -351 449 0
-174 438 488 0
95 396 430 0
-145 198 245 0
-327 -381 466 0
39 -107 -335 0
