c description: Random 4-CNF over 60 variables and 252 clauses
c generator: CNFgen (0.9.5)
c copyright: (C) 2012-2026 Massimo Lauria <massimo.lauria@uniroma1.it>
c url: https://massimolauria.net/cnfgen
c
p cnf 60 252
8 -22 -26 33 0
-1 28 -31 48 0
-4 -15 -27 -28 0
20 44 -48 52 0
30 44 47 48 0
20 -27 -30 -46 0
2 35 46 -50 0
-12 25 34 -36 0
-2 19 35 48 0
-12 15 33 43 0
-7 53 56 60 0
5 7 -12 -30 0
-21 25 -28 -48 0
4 -19 -41 -46 0
30 43 -47 56 0
16 -18 19 35 0
-2 24 37 -49 0
-9 -32 36 -46 0
-1 -13 39 49 0
-14 -28 42 56 0
-19 41 -49 58 0
13 14 44 -59 0
19 -26 -35 47 0
-1 25 -44 50 0
-8 11 27 51 0
15 -20 -26 -38 0
-6 7 17 53 0
-8 20 -36 -42 0
30 40 -46 56 0
-1 11 -12 21 0
-3 -10 43 -52 0
17 19 55 60 0
-16 -43 -50 60 0
16 -28 30 -60 0
9 18 -19 -45 0
-12 28 30 32 0
-5 -29 -30 42 0
-13 19 21 -24 0
19 27 -28 50 0
-12 23 48 -53 0
9 -15 -46 -57 0
15 34 38 42 0
-2 28 38 58 0
-4 13 -51 -58 0
14 -18 -30 37 0
12 -24 25 53 0
-5 -42 49 60 0
7 9 -24 30 0
2 26 29 -48 0
-3 -35 45 52 0
41 42 45 51 0
-12 -35 -47 48 0
-21 -40 49 56 0
-20 -44 45 55 0
5 36 55 59 0
14 -36 -52 56 0
4 5 -40 41 0
-21 -37 -42 -54 0
2 -9 15 -50 0
-8 22 -24 -51 0
8 -25 -40 52 0
-7 25 -43 -47 0
-21 -34 -45 55 0
-10 26 -37 53 0
-11 -20 36 50 0
11 -13 33 -56 0
-10 20 45 -60 0
9 -44 -52 -56 0
-7 -28 30 60 0
3 -6 -26 -46 0
-15 -27 36 46 0
-7 30 -31 57 0
19 39 42 49 0
-13 -44 45 55 0
7 -17 29 50 0
-1 45 54 -59 0
-13 -15 33 -48 0
-1 -5 40 -43 0
-7 -37 40 55 0
29 37 41 -46 0
4 -14 16 -55 0
-11 13 24 -35 0
-6 41 58 60 0
23 24 -30 -42 0
-7 -11 18 42 0
2 12 26 54 0
-6 10 22 -29 0
7 9 18 -22 0
26 33 -41 -54 0
35 41 -57 -60 0
-1 7 31 58 0
-10 13 19 35 0
9 -16 -21 -23 0
9 -33 48 58 0
-9 18 30 39 0
6 21 -33 -54 0
-11 27 35 -47 0
-4 -45 49 60 0
11 -33 47 57 0
5 13 35 -57 0
-2 -11 -29 -59 0
16 -23 25 -49 0
10 33 -41 -51 0
23 34 56 59 0
-24 -27 -28 -46 0
3 27 -50 -53 0
-8 11 -16 42 0
4 9 -17 53 0
1 24 25 -31 0
4 7 -21 -43 0
-5 21 -31 -54 0
-7 -9 54 -57 0
4 38 -48 60 0
-5 -12 -32 -35 0
2 -26 53 57 0
-20 -31 40 -50 0
-9 -32 48 54 0
37 46 49 54 0
1 -3 -19 50 0
8 -19 -40 -54 0
-35 -41 -48 -49 0
-2 30 35 60 0
-24 -32 -35 40 0
-10 -24 31 -47 0
-23 -31 52 -59 0
2 -5 6 15 0
-1 3 -49 -58 0
5 10 -16 -35 0
2 -28 41 -59 0
-17 22 32 57 0
-11 23 -54 -55 0
9 -15 -26 -33 0
11 20 -44 53 0
-1 -7 -40 -48 0
12 31 59 60 0
32 39 48 -54 0
12 -19 41 51 0
-3 -16 50 59 0
-23 -41 -50 -59 0
21 24 26 -36 0
-2 12 36 -39 0
32 38 -41 -50 0
14 30 50 -56 0
-9 -18 21 -41 0
9 16 18 -36 0
-2 -3 22 -37 0
1 4 36 52 0
20 21 27 49 0
-29 -41 42 45 0
-35 -48 -58 60 0
27 -38 -39 49 0
-19 -34 -36 -56 0
-2 -15 36 -47 0
17 36 -55 -59 0
-1 32 34 42 0
-1 34 -36 48 0
12 16 -40 -45 0
-10 19 -35 49 0
8 -15 -19 -25 0
2 -19 32 -49 0
1 -20 -48 59 0
36 37 40 46 0
9 10 -41 -57 0
-7 -15 -54 -56 0
6 -29 46 -54 0
10 26 40 53 0
-3 -18 -27 -47 0
24 44 -53 54 0
-4 7 -47 -60 0
-11 -28 48 49 0
8 -36 47 54 0
-8 -26 -30 -51 0
9 -21 46 -57 0
5 9 19 -48 0
-36 -39 -41 -47 0
22 -42 -44 -57 0
-35 39 55 58 0
-6 27 -33 -59 0
6 12 19 -29 0
-7 12 -16 -30 0
14 20 44 51 0
-50 -51 -52 54 0
-26 34 37 58 0
20 38 -53 56 0
24 34 -47 -49 0
11 -15 -17 -43 0
3 5 -17 -57 0
-5 10 -47 48 0
-6 44 53 58 0
-5 24 29 50 0
-7 -31 -55 57 0
9 25 41 -54 0
27 32 35 -58 0
-8 15 -26 -59 0
-37 -45 -51 -59 0
-22 23 -38 50 0
1 -9 -15 -38 0
-5 -24 -50 -57 0
-1 -15 20 44 0
3 28 -30 -56 0
-20 -34 36 -44 0
5 27 -40 45 0
-1 -11 -43 51 0
1 5 28 -31 0
-32 33 34 -49 0
-18 21 -30 40 0
7 8 -44 45 0
-18 -24 -44 -47 0
10 -31 -34 49 0
-15 32 49 55 0
9 -24 33 44 0
5 -21 42 -45 0
34 43 44 60 0
20 -42 46 -60 0
-7 19 -48 -49 0
10 -11 -15 -25 0
-13 -16 40 45 0
-4 -43 47 57 0
10 -31 38 -60 0
7 9 30 60 0
22 36 43 -49 0
-7 10 58 59 0
-5 -25 -51 -53 0
7 25 -36 55 0
-1 4 -18 29 0
8 -14 -35 -50 0
-11 25 27 -57 0
-18 25 28 52 0
10 -21 28 -50 0
-32 38 -42 -52 0
2 -8 -27 -52 0
3 30 35 -60 0
4 12 -20 52 0
-9 49 -50 53 0
-11 -16 -27 -52 0
7 -9 13 17 0
7 10 21 29 0
-4 -6 14 -52 0
40 48 -53 -55 0
-11 -12 20 -26 0
-14 30 34 52 0
10 -15 -52 -53 0
-25 -34 50 58 0
-1 27 -36 39 0
-27 -36 40 48 0
-30 32 51 56 0
-5 -17 -29 -36 0
-1 21 -31 57 0
2 -10 -24 45 0
-7 47 53 55 0
1 3 -49 -52 0
-16 39 40 45 0
