c description: Random 3-CNF over 150 variables and 630 clauses
c generator: CNFgen (0.9.5)
c copyright: (C) 2012-2026 Massimo Lauria <massimo.lauria@uniroma1.it>
c url: https://massimolauria.net/cnfgen
c
p cnf 150 630
-23 -77 -96 0
71 -86 110 0
33 -48 -102 0
-52 -67 -88 0
59 61 -65 0
-41 -58 93 0
14 -51 -100 0
95 144 -150 0
-35 -78 -145 0
28 -54 -135 0
16 66 -136 0
-35 80 -147 0
54 85 -131 0
-61 80 106 0
-39 116 -129 0
84 108 -125 0
-95 109 -115 0
-37 55 -87 0
-94 101 107 0
-23 -98 -115 0
16 -91 -100 0
-55 -67 -76 0
-24 51 -119 0
-7 79 121 0
35 -55 84 0
50 -95 142 0
30 -54 -99 0
-24 40 -117 0
-45 -53 -90 0
-38 -94 -118 0
-3 -35 -144 0
-5 -16 -37 0
44 -47 111 0
39 -82 126 0
70 -93 136 0
99 -118 127 0
-21 -41 -107 0
18 -27 -78 0
-23 -25 27 0
-77 87 -114 0
-103 106 112 0
4 12 -110 0
-1 -26 146 0
29 -64 -117 0
67 101 -105 0
3 23 34 0
15 -99 146 0
10 -11 -85 0
118 127 -143 0
57 -63 -134 0
18 -87 119 0
31 -76 83 0
-11 -61 81 0
-57 -78 -90 0
-34 115 123 0
46 99 -121 0
-54 -88 138 0
-1 41 -111 0
-38 136 140 0
41 57 -87 0
10 73 -117 0
13 53 -58 0
-31 104 108 0
-10 95 -119 0
-29 -142 -150 0
-130 -142 -147 0
-4 -72 -150 0
120 125 136 0
-22 -30 84 0
37 63 69 0
12 67 133 0
51 81 98 0
14 85 115 0
-16 -90 -93 0
102 134 -137 0
-118 133 -140 0
-42 -45 150 0
46 48 -60 0
68 100 117 0
-55 -85 -145 0
62 125 -149 0
38 -84 134 0
9 28 100 0
26 -51 120 0
-4 -18 40 0
99 -109 124 0
-13 -95 138 0
-2 -41 130 0
-89 91 -119 0
28 -53 -74 0
-51 55 -109 0
-34 -92 -97 0
96 -100 -107 0
51 -117 135 0
-68 87 144 0
34 -108 143 0
-19 -143 -147 0
-27 126 -135 0
19 -58 -72 0
99 -112 136 0
-7 -62 -72 0
-45 -102 -146 0
22 -114 -123 0
-50 -97 145 0
-38 65 -92 0
35 -57 82 0
65 133 -148 0
13 36 -65 0
15 33 -137 0
21 49 122 0
-40 -87 -128 0
24 100 126 0
1 -33 -46 0
15 -48 114 0
28 -52 -143 0
41 -63 -148 0
63 98 128 0
-14 59 -102 0
-10 30 104 0
2 55 -78 0
-2 44 -81 0
-13 -16 -19 0
-9 14 48 0
25 88 114 0
-3 -114 -131 0
3 -79 112 0
20 -46 -142 0
-40 69 97 0
-55 -73 135 0
6 75 -107 0
-10 11 140 0
58 -90 -130 0
45 -111 -132 0
57 -69 130 0
67 -100 132 0
-46 116 -137 0
-1 5 -96 0
-9 30 -128 0
-20 129 132 0
70 103 -104 0
-13 21 38 0
-17 -69 -149 0
-24 -37 44 0
9 -23 -111 0
-20 -74 -131 0
-52 -70 -149 0
-16 -115 119 0
-18 -89 134 0
-1 33 100 0
-27 57 -147 0
4 30 -58 0
-13 102 135 0
-26 28 -29 0
85 -96 -113 0
50 -82 89 0
64 106 129 0
-15 91 -115 0
58 90 -134 0
10 -95 150 0
97 125 -149 0
-4 70 -94 0
7 20 -130 0
51 72 -126 0
-49 98 -126 0
-30 -76 123 0
10 -15 81 0
-48 64 70 0
13 -52 -64 0
-47 -127 -128 0
-27 -55 75 0
-7 -79 109 0
-28 -55 128 0
-20 -45 141 0
44 -68 -113 0
21 48 110 0
53 104 119 0
-59 -98 -140 0
-58 67 120 0
-58 -128 -149 0
-15 -58 -60 0
-80 -143 -147 0
15 -73 -89 0
-73 -120 143 0
1 -28 127 0
-5 -69 -125 0
91 119 -132 0
-29 36 147 0
-13 -58 140 0
-85 -109 -132 0
22 79 149 0
-18 -65 -149 0
-59 -113 139 0
-50 78 140 0
-12 -89 -111 0
35 56 -60 0
42 59 122 0
-72 -114 -117 0
-52 -82 143 0
-14 61 -94 0
58 66 79 0
-12 -49 -150 0
-10 16 82 0
-9 -36 -150 0
60 100 106 0
-15 53 -130 0
-8 -55 68 0
-84 97 -145 0
-87 -120 -122 0
17 -30 54 0
-14 38 -40 0
37 52 119 0
30 78 133 0
20 103 -119 0
-20 93 -102 0
8 -21 115 0
-3 18 -74 0
-19 44 -89 0
-9 25 102 0
-10 72 -138 0
-2 -43 -55 0
106 111 -119 0
-52 -108 -144 0
-17 74 -146 0
-87 137 -149 0
-36 -55 114 0
-37 89 94 0
-29 -119 131 0
-75 -132 149 0
10 111 135 0
-15 53 112 0
13 -15 -68 0
19 125 -141 0
78 -97 117 0
20 21 -88 0
-22 -91 -147 0
47 -140 -146 0
33 106 147 0
72 80 84 0
35 -77 116 0
57 68 -69 0
34 85 -100 0
-20 -37 -146 0
71 -81 137 0
-71 108 -130 0
46 -93 110 0
-3 -14 41 0
-31 44 149 0
-70 73 -124 0
-107 111 136 0
62 94 -132 0
44 52 -76 0
-10 -62 99 0
-83 -112 137 0
-13 -71 -126 0
8 64 125 0
-40 94 95 0
-42 -119 138 0
51 -83 -148 0
18 123 150 0
29 -70 133 0
-7 34 -119 0
14 55 -116 0
82 91 -120 0
-103 -118 -135 0
-20 114 124 0
50 126 -141 0
5 31 98 0
-38 130 -150 0
-39 59 132 0
-46 74 -79 0
-61 -110 131 0
8 55 85 0
-86 -95 144 0
-27 -46 -114 0
18 46 85 0
-21 -125 -136 0
35 -56 135 0
-9 66 -143 0
108 -115 129 0
-15 -53 116 0
16 65 -98 0
38 -41 105 0
33 -45 146 0
4 51 95 0
-64 -81 115 0
-75 86 -93 0
-70 104 -144 0
-50 -84 137 0
45 46 -102 0
-2 -35 -141 0
83 -94 98 0
-5 -21 136 0
-27 -148 -150 0
-90 -138 -147 0
-40 -44 -135 0
27 -43 -125 0
-48 60 129 0
-60 108 -138 0
56 130 142 0
-18 -105 -109 0
63 102 118 0
-32 -34 -77 0
-82 -90 142 0
-22 -26 -106 0
-9 35 -68 0
54 -79 118 0
-56 119 145 0
16 -41 142 0
31 -34 145 0
20 -82 148 0
107 120 125 0
-48 64 130 0
2 122 -135 0
-3 -54 -141 0
8 58 -121 0
61 -89 95 0
8 -20 -85 0
65 -79 92 0
71 95 140 0
18 -107 -145 0
22 -40 103 0
-67 103 -150 0
41 98 145 0
-26 53 75 0
9 -31 143 0
9 80 137 0
-22 29 148 0
-51 -134 148 0
-71 -107 -110 0
-9 88 143 0
-22 -27 113 0
-8 -61 -86 0
-4 -22 142 0
27 -30 -114 0
27 -28 -45 0
-2 43 107 0
24 28 148 0
57 -69 146 0
-33 -111 117 0
-53 80 145 0
-52 -57 140 0
48 67 87 0
105 110 -138 0
7 64 -79 0
26 69 -126 0
53 -79 -110 0
-15 50 91 0
-6 40 -150 0
81 -104 128 0
106 -115 -137 0
1 48 -116 0
-54 73 133 0
-33 -108 116 0
19 -24 118 0
-68 100 -105 0
52 81 -103 0
-13 77 -82 0
38 -88 139 0
-14 -29 -67 0
-65 -72 87 0
2 -7 149 0
-39 92 100 0
-48 -71 146 0
-50 108 110 0
45 -69 113 0
8 -66 94 0
74 -106 119 0
-62 90 -134 0
-97 103 149 0
3 37 -112 0
-36 136 148 0
10 -28 -103 0
12 127 149 0
-118 -126 -148 0
-61 -120 134 0
-2 -37 123 0
82 109 145 0
-44 55 112 0
17 26 123 0
-10 -131 149 0
22 57 63 0
-5 -33 -141 0
-15 -63 -111 0
41 86 129 0
1 -72 115 0
3 22 -130 0
-55 -101 147 0
-25 30 -88 0
78 84 -118 0
-76 -82 -138 0
-10 36 105 0
-8 -47 145 0
6 21 69 0
-66 110 141 0
57 59 132 0
77 -89 122 0
-59 71 136 0
-26 -84 -100 0
-69 -99 -127 0
-52 -81 124 0
-17 -83 114 0
9 60 72 0
-10 42 95 0
15 -46 -78 0
-75 98 -133 0
12 27 -39 0
9 -27 70 0
-27 58 127 0
8 66 -92 0
-39 66 133 0
-27 50 -142 0
-48 -64 147 0
2 12 -59 0
-25 85 -116 0
40 -63 -81 0
14 55 -64 0
39 81 -140 0
-18 51 74 0
-22 -48 -132 0
3 49 -94 0
-2 -68 -79 0
-42 135 -145 0
-7 73 142 0
-71 -119 -142 0
-28 -80 -146 0
-53 -70 -148 0
12 76 -122 0
50 -100 -108 0
37 -99 -141 0
-20 39 -64 0
61 68 -145 0
-3 75 106 0
48 -50 127 0
-50 70 -123 0
45 -53 104 0
-25 52 -82 0
-27 70 110 0
63 -84 142 0
-111 135 -136 0
15 -72 85 0
-28 74 -95 0
3 -7 -51 0
67 -89 99 0
-54 -97 -109 0
-19 132 134 0
-35 -81 111 0
20 85 120 0
10 116 117 0
92 129 144 0
100 -134 -137 0
14 -50 -105 0
41 59 92 0
-56 -122 -128 0
6 74 92 0
19 -51 117 0
-8 15 -55 0
-45 -74 93 0
21 -28 81 0
106 116 -120 0
-26 29 44 0
-26 63 110 0
62 79 86 0
4 65 -66 0
18 21 24 0
59 74 -102 0
5 -100 121 0
-84 -103 131 0
34 47 -99 0
-69 -71 -107 0
-58 100 -149 0
78 97 134 0
-18 -33 111 0
-37 106 -145 0
-53 -61 150 0
76 94 148 0
43 90 -119 0
4 90 123 0
112 -113 132 0
-30 46 117 0
-69 99 124 0
40 -87 -134 0
14 62 -91 0
28 42 -128 0
3 47 -59 0
-12 -61 139 0
-57 -66 111 0
-60 -63 111 0
10 118 -148 0
-102 112 149 0
-27 -90 -105 0
-2 73 121 0
71 83 120 0
9 -24 52 0
8 36 42 0
-54 -58 -114 0
-68 92 99 0
-2 30 -35 0
-12 -23 101 0
-8 -109 118 0
7 86 104 0
38 -106 119 0
-8 -31 56 0
25 -44 82 0
100 132 -136 0
-29 98 111 0
17 34 -78 0
91 116 138 0
-2 67 141 0
18 47 114 0
6 -79 111 0
38 -48 89 0
32 -110 -145 0
44 -68 -149 0
-43 102 144 0
-108 -114 -143 0
28 -85 -107 0
17 -85 -102 0
-98 -112 -120 0
42 131 -137 0
-51 -58 -139 0
-28 -58 -67 0
18 -75 -93 0
-54 -74 -141 0
7 118 131 0
-77 79 -123 0
19 -61 -62 0
88 104 -126 0
-14 36 106 0
52 -76 103 0
-3 -27 146 0
23 97 128 0
32 -41 142 0
-61 96 111 0
-28 -75 -111 0
-60 74 -127 0
-5 -85 102 0
45 52 -126 0
-32 -74 113 0
29 41 -111 0
-79 85 138 0
41 -57 -130 0
-7 -105 112 0
-27 35 -104 0
-32 49 117 0
-46 -50 -136 0
41 -63 133 0
46 101 -110 0
27 76 -132 0
21 83 -129 0
-80 -96 -123 0
-17 -18 82 0
26 -116 135 0
-17 -33 104 0
14 50 -119 0
-75 -80 -90 0
42 89 -124 0
16 -44 80 0
-84 104 150 0
-23 112 -139 0
-32 -91 113 0
11 -27 145 0
-79 -127 -146 0
16 -45 139 0
110 -133 138 0
-10 -43 -120 0
-7 61 -98 0
-42 71 83 0
2 118 -122 0
-21 27 92 0
72 89 -141 0
-141 -143 -146 0
-19 41 61 0
-8 39 93 0
-14 84 -131 0
87 117 -143 0
14 -134 139 0
-17 28 56 0
-67 -105 -128 0
35 -128 -150 0
27 -84 150 0
-34 60 -68 0
-16 87 -95 0
8 70 -102 0
36 -107 -131 0
-11 -132 -135 0
20 -37 113 0
21 112 148 0
64 -105 120 0
18 36 87 0
2 141 -148 0
46 -95 -123 0
-8 -55 113 0
-6 -40 -118 0
-67 104 -129 0
12 -19 32 0
29 49 -145 0
102 104 124 0
20 55 71 0
6 -11 77 0
-25 87 -108 0
-121 123 145 0
2 68 -138 0
15 59 93 0
75 -87 -143 0
-3 -9 14 0
-68 -78 -85 0
-54 80 -108 0
39 51 -115 0
6 8 -70 0
15 -47 -66 0
6 9 146 0
49 -85 114 0
-83 86 105 0
11 45 147 0
-28 33 126 0
-79 112 -147 0
47 54 -72 0
-76 123 138 0
-27 92 -120 0
7 108 -140 0
57 144 145 0
10 -24 -77 0
-4 87 143 0
14 28 -55 0
19 -27 -82 0
29 60 -69 0
54 -58 -75 0
111 -117 130 0
39 53 106 0
46 62 -121 0
