c description: Random 3-CNF over 140 variables and 588 clauses
c generator: CNFgen (0.9.5)
c copyright: (C) 2012-2026 Massimo Lauria <massimo.lauria@uniroma1.it>
c url: https://massimolauria.net/cnfgen
c
p cnf 140 588
60 -91 -116 0
20 -69 -73 0
24 55 95 0
41 58 -137 0
-34 129 -137 0
55 -98 127 0
-40 -99 -126 0
65 95 -96 0
-22 -37 109 0
-8 24 61 0
64 83 140 0
15 20 -72 0
-34 83 -126 0
7 -98 104 0
47 -65 73 0
4 -8 105 0
-8 23 -136 0
-1 30 -83 0
-11 60 65 0
19 29 94 0
-2 -13 21 0
1 50 -129 0
-33 -68 78 0
22 -38 -138 0
-7 89 -95 0
-21 -57 -64 0
-44 68 101 0
-21 69 -133 0
19 121 122 0
108 128 -139 0
18 -48 -58 0
22 -44 -68 0
-58 65 107 0
37 73 128 0
14 57 -138 0
1 30 102 0
-42 -66 -81 0
-26 -86 -126 0
-67 77 -134 0
15 -106 135 0
-59 115 -121 0
25 -110 -114 0
36 -46 110 0
-27 -41 51 0
-21 -44 -54 0
33 -59 -109 0
43 -99 102 0
-28 50 -133 0
72 93 121 0
13 66 -89 0
38 45 73 0
-46 65 -118 0
79 128 -130 0
100 -110 -140 0
-37 40 74 0
57 88 -132 0
-17 41 -128 0
2 30 47 0
60 68 105 0
20 24 87 0
107 -114 132 0
10 70 91 0
-23 49 -129 0
-40 97 109 0
-44 -95 -130 0
-73 97 -115 0
-3 47 65 0
-107 -116 137 0
-84 93 138 0
-1 -17 20 0
-70 120 -122 0
-58 68 -79 0
6 -89 108 0
-5 -21 64 0
27 90 114 0
13 -19 -126 0
51 110 -129 0
100 -108 140 0
-3 -95 -136 0
-4 -49 -87 0
59 89 -123 0
40 42 -52 0
13 -15 -130 0
52 -57 76 0
-32 53 87 0
-28 -62 -123 0
-49 59 65 0
-26 88 97 0
-39 96 -126 0
71 -135 140 0
5 -39 -82 0
-39 49 -138 0
58 71 -114 0
20 -73 137 0
43 -45 57 0
32 92 -112 0
27 -108 139 0
-47 91 -136 0
49 112 -132 0
28 -59 125 0
32 74 128 0
76 80 82 0
15 -73 -85 0
-22 -47 96 0
10 -30 -63 0
-28 -36 -48 0
-31 -98 -122 0
-57 -66 -137 0
-38 -65 99 0
50 -62 88 0
9 25 42 0
-73 87 105 0
-86 89 -96 0
-6 -8 89 0
40 -96 127 0
-49 126 132 0
28 88 131 0
-27 57 -69 0
-34 49 58 0
10 -15 -96 0
-16 -93 -103 0
-53 -74 110 0
18 -60 131 0
-7 -20 47 0
20 29 -56 0
-67 -75 132 0
31 -81 -134 0
-21 -83 -118 0
23 -76 105 0
-32 -104 119 0
2 -41 58 0
-2 79 81 0
-87 114 -134 0
-45 -104 -125 0
71 91 -138 0
-34 -84 -102 0
45 -100 -115 0
8 -34 45 0
-6 45 -63 0
-34 45 94 0
-73 85 116 0
15 -54 84 0
-17 36 58 0
7 -71 106 0
15 -75 -80 0
-36 -44 -65 0
-2 -89 105 0
-24 -27 -28 0
15 -50 116 0
18 -82 -94 0
20 54 86 0
-30 -100 126 0
24 -86 -135 0
58 74 -95 0
-61 113 -123 0
92 -128 139 0
-41 74 83 0
8 17 56 0
-19 90 136 0
-26 -88 107 0
-60 -85 101 0
97 -99 103 0
-1 16 -22 0
58 -76 -115 0
-10 27 -111 0
-85 111 132 0
-9 -21 -135 0
-11 -63 102 0
-6 24 135 0
81 101 -135 0
2 89 -91 0
26 -57 102 0
-102 -106 117 0
71 -90 -111 0
-102 104 -134 0
-13 26 -112 0
-80 94 100 0
-44 63 -108 0
16 41 -108 0
-48 98 -116 0
78 -107 -125 0
39 -109 -133 0
24 -55 116 0
26 70 -72 0
10 26 61 0
17 -39 -129 0
-20 -44 45 0
-22 30 47 0
61 -73 126 0
15 -76 -99 0
-32 -38 -137 0
52 -56 -104 0
-31 -79 -100 0
-44 55 80 0
-63 -66 -122 0
25 36 -121 0
-2 -5 10 0
-70 -89 -137 0
7 62 120 0
39 -113 115 0
-14 -25 79 0
18 29 -92 0
-59 117 -133 0
-34 111 -135 0
27 82 93 0
18 -39 108 0
-90 -100 -130 0
-8 95 -104 0
4 81 104 0
-17 56 -58 0
5 91 92 0
42 46 49 0
-107 -115 -127 0
-53 118 131 0
-22 30 -111 0
-35 -54 87 0
-103 104 106 0
60 -115 -133 0
-105 -122 138 0
11 40 -134 0
80 81 106 0
60 -89 118 0
-21 26 51 0
-33 -61 -71 0
41 -127 128 0
-67 -103 -135 0
-20 -48 117 0
25 94 104 0
-8 13 -61 0
41 95 116 0
-120 126 -137 0
32 -72 -121 0
96 101 113 0
-3 -9 -89 0
-28 118 -140 0
5 -22 -71 0
-67 -87 140 0
50 58 -71 0
-87 -99 -118 0
-66 82 123 0
51 106 134 0
-55 -94 133 0
-15 28 114 0
-65 -70 120 0
57 -82 138 0
21 73 -117 0
-21 -116 118 0
16 -119 125 0
10 25 -130 0
-35 -90 -118 0
-46 -54 -69 0
20 -30 -140 0
-12 -57 -119 0
36 77 101 0
-62 -81 -133 0
30 93 118 0
-45 51 116 0
-37 51 -71 0
6 50 -119 0
-25 60 -113 0
112 126 -138 0
31 87 -136 0
-4 129 -130 0
1 109 -114 0
-59 60 101 0
42 -111 128 0
28 -65 136 0
30 -82 126 0
37 68 109 0
30 35 -120 0
-12 -16 60 0
-7 -25 65 0
45 90 -123 0
23 25 -59 0
9 -102 -139 0
-62 -70 99 0
19 20 -127 0
55 71 -104 0
-8 -31 -76 0
-78 -85 93 0
6 54 116 0
-6 12 110 0
-33 -39 -56 0
-8 20 -24 0
-82 96 -128 0
7 57 -73 0
-6 -63 -64 0
-31 -75 135 0
-7 -57 58 0
38 89 -132 0
76 -97 100 0
26 -84 -112 0
18 36 108 0
-16 -20 -27 0
-32 46 73 0
-2 104 -124 0
-41 -75 131 0
-22 -123 137 0
42 -49 63 0
-33 99 -131 0
56 79 -88 0
-22 -37 66 0
33 44 68 0
-25 65 74 0
3 -37 -140 0
-14 43 -130 0
88 124 -128 0
-21 88 110 0
-26 -91 135 0
18 -27 80 0
-55 82 88 0
47 106 -114 0
12 94 106 0
-8 -18 61 0
6 -16 88 0
-56 -65 87 0
-14 -71 -111 0
-67 73 -101 0
-21 -123 138 0
66 104 -132 0
52 72 -94 0
-47 65 133 0
-37 -46 109 0
-45 95 118 0
26 -80 94 0
-74 -91 126 0
86 107 -121 0
-15 -41 -68 0
-26 39 -82 0
2 -30 35 0
28 103 -118 0
38 -57 121 0
-18 -28 128 0
-17 -88 -130 0
82 94 113 0
40 98 108 0
42 64 72 0
62 -75 -114 0
-20 38 112 0
30 -87 117 0
-28 55 107 0
36 37 132 0
-11 -22 -118 0
16 -22 -112 0
18 61 -107 0
100 111 118 0
9 -54 -139 0
5 67 111 0
8 61 138 0
-17 -46 132 0
66 95 -110 0
22 -28 77 0
-35 -128 134 0
43 121 -128 0
38 -65 68 0
-28 -61 101 0
-5 -50 73 0
10 108 -138 0
-19 59 -133 0
22 -66 124 0
13 37 -131 0
95 100 131 0
31 -72 127 0
-17 -22 -137 0
4 120 -134 0
7 -18 -138 0
-11 23 -137 0
84 -118 -121 0
35 -43 -111 0
24 -89 -119 0
51 61 132 0
78 -105 -133 0
55 85 101 0
-4 56 59 0
-34 68 -108 0
-26 92 118 0
-1 -114 -131 0
112 -125 -134 0
-99 -107 -124 0
-33 42 -71 0
13 113 120 0
-39 -80 -117 0
-13 54 -59 0
-32 -37 102 0
27 -86 137 0
-90 -112 131 0
-28 46 -101 0
-26 -54 85 0
75 111 134 0
-58 109 129 0
-20 28 35 0
32 -112 -124 0
92 -109 134 0
-5 78 98 0
34 64 -115 0
6 -27 54 0
-17 43 66 0
-8 -27 115 0
-96 103 -107 0
10 -73 -102 0
70 -114 137 0
33 -45 -131 0
11 111 -132 0
110 120 129 0
-35 -61 73 0
-5 -82 -85 0
-83 -88 -107 0
59 95 102 0
-25 -30 83 0
-16 36 -92 0
-29 45 -76 0
30 50 103 0
-63 103 131 0
-42 -94 140 0
-17 -19 54 0
-37 77 -115 0
3 -45 47 0
53 74 104 0
-25 -32 -63 0
-37 50 115 0
33 82 -106 0
-12 35 97 0
-41 -76 113 0
43 47 -61 0
-29 -34 -42 0
-17 -107 111 0
20 -69 128 0
-40 63 -98 0
70 84 105 0
69 -78 114 0
30 90 -94 0
17 22 -122 0
-5 136 140 0
-6 14 -43 0
15 63 69 0
-17 -52 90 0
-17 -35 55 0
-50 108 -136 0
-6 -62 -101 0
-36 -77 103 0
-15 134 -139 0
27 -81 82 0
-24 67 -133 0
-2 -23 39 0
53 -62 -74 0
-34 -92 136 0
-93 127 -130 0
25 66 -138 0
1 45 -123 0
70 -136 140 0
56 86 87 0
4 39 -73 0
41 44 -137 0
13 75 -126 0
-5 26 45 0
44 64 -97 0
33 50 125 0
-23 115 134 0
-1 -26 89 0
31 -36 -59 0
11 81 -111 0
33 -69 -81 0
12 18 119 0
-27 -72 86 0
12 78 -136 0
49 -51 88 0
-4 90 -98 0
-20 110 -121 0
-44 57 -85 0
-88 -113 -114 0
-8 -90 97 0
-71 73 138 0
-71 106 118 0
-37 38 -59 0
28 -69 134 0
54 -69 115 0
-68 -124 126 0
57 -120 129 0
39 -78 92 0
95 -106 137 0
67 70 -73 0
-33 103 112 0
67 -122 -123 0
28 -114 123 0
-21 97 -107 0
-52 67 92 0
-21 -102 -113 0
-9 -94 107 0
83 85 133 0
-26 -102 -127 0
-2 45 -123 0
39 42 -53 0
58 -64 -100 0
-10 -115 116 0
83 -97 137 0
-46 62 -76 0
41 45 99 0
14 -115 -134 0
79 125 -128 0
-107 -110 -127 0
-9 62 129 0
98 125 -129 0
-38 -115 139 0
-19 -28 -76 0
31 53 64 0
77 88 -110 0
43 67 -101 0
15 85 -97 0
18 53 65 0
12 54 -115 0
19 34 -139 0
-10 75 -76 0
57 65 -93 0
63 86 -118 0
26 59 -115 0
2 64 -69 0
-27 -68 78 0
-69 83 -140 0
-1 -73 94 0
-50 90 117 0
-16 -72 -124 0
-26 27 -99 0
-30 38 -47 0
74 112 -116 0
-85 105 -131 0
94 117 130 0
4 -63 -90 0
-74 115 -122 0
19 20 -48 0
-18 122 -131 0
2 -11 140 0
93 -95 -115 0
-6 -91 -95 0
55 119 123 0
-79 -94 131 0
46 59 -105 0
1 -75 108 0
76 -101 104 0
45 -77 94 0
-40 -80 84 0
-15 30 -33 0
-8 -26 82 0
42 73 98 0
-42 -61 76 0
-13 -16 71 0
-15 111 134 0
28 38 -50 0
-32 -37 -61 0
-69 114 121 0
-41 -64 -128 0
-24 89 -129 0
6 39 82 0
-26 63 -92 0
-26 -63 -137 0
-19 -79 127 0
9 14 -91 0
-5 -41 -113 0
-64 -80 -92 0
47 -69 124 0
-33 82 122 0
-56 -121 130 0
54 -75 117 0
32 97 139 0
-33 76 105 0
-20 -51 -52 0
-89 -102 -117 0
-16 98 -118 0
55 -80 -107 0
-61 93 -123 0
28 -62 -96 0
38 55 -118 0
-32 42 -122 0
-32 74 -129 0
18 -68 -126 0
-40 102 -108 0
-22 50 66 0
59 115 128 0
6 37 -91 0
1 -107 -109 0
-16 -52 117 0
-27 49 110 0
17 19 -113 0
-42 107 122 0
-121 -122 -136 0
60 64 -109 0
39 73 137 0
45 -108 -134 0
15 -29 -83 0
