c description: Random 4-CNF over 120 variables and 360 clauses
c generator: CNFgen (0.9.5)
c copyright: (C) 2012-2026 Massimo Lauria <massimo.lauria@uniroma1.it>
c url: https://massimolauria.net/cnfgen
c
p cnf 120 360
30 -93 -96 -98 0
-28 54 -63 91 0
47 50 51 76 0
-8 -68 88 -91 0
10 11 99 -111 0
11 42 81 96 0
-1 -9 -114 -118 0
-21 36 -56 -82 0
-66 -67 76 -77 0
11 40 -77 94 0
32 40 76 -93 0
-1 -17 -20 -40 0
-71 75 77 -120 0
2 -45 55 57 0
-18 92 -103 119 0
2 81 93 114 0
-13 40 -90 -98 0
-85 -87 -98 105 0
-12 79 91 -119 0
-9 14 34 -97 0
-4 32 -68 -111 0
47 65 88 -104 0
-4 -31 40 102 0
13 -18 -46 -108 0
45 -46 -56 -92 0
-4 -15 41 -85 0
-1 -12 -82 93 0
21 -37 -69 -105 0
60 70 -95 -110 0
-46 60 -91 -110 0
-29 -35 95 113 0
-60 -70 90 119 0
11 -38 -66 -72 0
11 -59 84 -86 0
42 -59 81 88 0
-18 -31 51 -108 0
-31 -47 76 -96 0
-12 -26 31 73 0
-32 -55 85 116 0
48 83 -100 -114 0
7 56 80 101 0
19 -20 -64 -96 0
-55 -70 -76 -78 0
-18 -32 57 -76 0
12 -55 -57 116 0
-37 -80 -88 106 0
-23 38 -68 -94 0
24 40 -66 -83 0
-11 30 43 -87 0
17 29 -40 -118 0
11 16 23 67 0
15 -33 61 -65 0
4 -23 35 -97 0
-32 -45 74 101 0
-24 -51 80 81 0
14 -23 -83 -90 0
2 3 -40 50 0
-2 -38 90 -115 0
-7 35 80 94 0
-19 -65 -99 -100 0
-13 -14 44 -59 0
8 -56 -67 102 0
2 -20 -31 -89 0
32 76 84 -88 0
-29 36 43 -55 0
8 -17 -51 -90 0
-2 -33 -49 57 0
37 -88 -112 113 0
32 63 106 115 0
-46 69 -80 -108 0
-16 42 -46 75 0
-43 -51 83 -115 0
-80 100 106 115 0
-29 45 58 103 0
45 -50 103 105 0
-28 37 59 -74 0
25 66 72 -97 0
28 -29 44 82 0
-33 -58 106 117 0
29 -59 76 -106 0
29 77 -88 93 0
-48 50 54 105 0
15 20 -52 54 0
-8 65 -102 -116 0
-21 49 73 105 0
34 51 -57 -100 0
33 -39 75 83 0
7 -37 -88 111 0
-12 25 -88 -118 0
-5 27 80 -103 0
5 -27 44 89 0
22 27 -100 117 0
-43 61 62 -120 0
16 -17 -32 -91 0
46 95 97 107 0
41 69 -85 -117 0
-69 83 98 117 0
-69 76 -77 109 0
15 34 62 -109 0
60 -70 -103 118 0
44 -74 93 109 0
7 16 53 -120 0
54 -61 -74 117 0
43 53 87 113 0
-3 52 66 94 0
-3 -21 -31 102 0
2 39 70 -112 0
30 48 72 -74 0
-59 -65 -72 115 0
4 -23 28 31 0
-34 45 100 112 0
-10 43 -56 -107 0
8 -18 -50 -79 0
8 66 75 90 0
48 61 -88 -91 0
-66 96 -101 113 0
-9 -12 -35 -40 0
-14 46 49 87 0
-28 -30 -35 36 0
34 35 80 93 0
7 -63 -79 -90 0
10 14 -50 -76 0
-2 6 61 -63 0
28 -57 68 -94 0
-8 21 49 -108 0
75 104 110 -116 0
31 -76 -98 -116 0
-23 45 89 93 0
-14 -37 38 58 0
-8 -31 51 -55 0
-1 -50 -61 -106 0
1 -31 72 106 0
33 61 -67 96 0
-13 47 -51 106 0
-41 50 61 78 0
-14 -31 84 111 0
8 -26 -55 68 0
44 -49 105 110 0
32 -70 -74 99 0
30 -57 58 99 0
70 76 -103 -118 0
38 -92 -98 -99 0
46 -80 89 102 0
69 89 -100 115 0
-11 -20 -39 -40 0
5 -39 -79 82 0
43 51 -70 -87 0
-13 -85 100 -119 0
36 44 52 -71 0
-59 -83 91 -110 0
12 -44 61 118 0
13 30 -49 115 0
-51 79 97 -120 0
-36 -42 69 -111 0
57 68 -96 111 0
36 59 -86 -120 0
40 57 -69 80 0
45 51 86 104 0
42 -61 -80 -100 0
1 39 72 -75 0
18 -46 72 -101 0
31 80 83 -104 0
9 -46 80 98 0
46 -66 -88 96 0
-45 97 102 -103 0
29 -94 -100 -112 0
-10 -14 -35 68 0
-25 40 -71 91 0
-62 68 -73 -114 0
-15 -24 -28 -77 0
34 -62 -110 -112 0
-33 58 -68 -104 0
49 56 -92 109 0
17 39 -62 -93 0
-45 81 -87 88 0
1 -22 48 -81 0
20 -64 -77 -119 0
12 58 64 99 0
-34 -63 73 -77 0
-5 -33 -73 -85 0
-71 -73 95 116 0
-22 -23 82 -109 0
-66 71 -75 84 0
-19 -63 79 81 0
7 -17 77 113 0
10 49 -97 99 0
-20 22 35 54 0
11 36 -55 86 0
8 -18 39 109 0
-8 46 51 80 0
30 51 -90 -109 0
37 -50 57 79 0
18 22 -38 79 0
-30 -38 96 104 0
-62 -70 89 112 0
7 -10 -13 74 0
16 -50 -73 -116 0
24 92 102 -120 0
50 71 -86 109 0
-37 -67 72 -77 0
-17 -29 30 -41 0
26 -52 82 85 0
65 -93 -94 -109 0
49 -78 117 119 0
99 -100 -116 117 0
-19 -23 -69 -86 0
-19 -57 -60 -116 0
7 15 70 101 0
-17 28 -30 -119 0
-19 34 -94 105 0
23 83 -97 120 0
2 31 60 119 0
-32 33 49 -86 0
60 74 79 -99 0
-11 -48 92 114 0
61 -89 -94 112 0
14 70 -81 114 0
6 22 -36 63 0
-10 35 -62 -103 0
79 -101 -108 -111 0
6 29 -80 93 0
-3 52 -54 109 0
-45 -56 101 -114 0
-15 -38 -84 -103 0
54 73 -83 -97 0
48 114 -118 -119 0
-16 -60 101 -107 0
-58 -60 -67 -80 0
-9 -32 -52 54 0
-1 13 112 -119 0
-71 -95 -103 -116 0
-1 -4 62 108 0
8 21 -37 70 0
-51 -52 -59 83 0
-4 5 -47 -56 0
-16 62 -103 119 0
18 27 28 -105 0
-2 54 56 -114 0
-24 -27 28 -37 0
12 53 -82 85 0
4 43 -61 -98 0
-35 -76 98 -100 0
27 64 -87 -107 0
-3 62 70 -94 0
-19 -57 -77 112 0
34 -78 -91 102 0
60 -101 113 117 0
-1 41 64 -95 0
-47 66 80 -87 0
3 -7 24 64 0
5 -13 25 98 0
20 39 -93 118 0
-13 -60 -95 108 0
-45 79 80 95 0
7 17 84 -91 0
-72 88 93 -120 0
-47 -66 70 114 0
-3 10 20 -63 0
-26 -41 -99 109 0
-8 -39 74 -76 0
-9 -64 83 -106 0
75 -78 -101 107 0
4 -23 -28 -67 0
84 104 -114 117 0
14 -65 -106 -117 0
-20 -39 -41 89 0
6 15 56 -86 0
-26 40 70 76 0
-7 -60 82 -119 0
46 67 -71 79 0
-41 45 -96 111 0
-12 40 -75 -103 0
-26 -81 99 -107 0
38 -63 90 93 0
78 -80 94 103 0
-15 25 71 -86 0
37 44 49 -113 0
-29 35 -63 -89 0
12 -78 -92 103 0
-10 -51 73 -100 0
-17 18 55 -73 0
6 -21 44 -116 0
-52 -59 -75 97 0
39 -68 111 117 0
36 -40 -107 112 0
18 49 -72 91 0
-20 36 -41 -42 0
32 -45 -62 96 0
59 79 90 -109 0
26 74 -97 117 0
21 24 -91 117 0
-43 -91 -96 -116 0
-46 -66 75 86 0
8 -74 -89 90 0
-12 -85 89 108 0
-9 28 -51 113 0
3 22 -23 -83 0
-12 -71 -88 90 0
-20 -30 57 83 0
-38 -50 -94 -106 0
34 53 -63 -105 0
-19 -45 79 112 0
23 30 -58 -117 0
3 -21 81 116 0
27 67 -97 119 0
-27 36 -74 109 0
63 -66 79 -109 0
13 -46 -55 65 0
5 -52 63 120 0
-16 -67 -79 96 0
-7 -98 -107 -110 0
18 -62 77 -95 0
-45 58 65 89 0
-6 32 107 -108 0
5 26 38 -105 0
-4 -22 -83 112 0
36 55 59 -62 0
19 21 -31 -113 0
17 -51 -73 93 0
10 32 51 -81 0
2 25 -30 -87 0
-14 48 -75 115 0
35 49 -70 114 0
24 -44 -89 118 0
37 -38 -51 118 0
-8 -23 50 -77 0
22 34 79 -103 0
54 78 -102 110 0
-18 -64 98 -116 0
-3 13 99 -107 0
-71 -89 92 -93 0
10 -34 -65 -105 0
-14 30 52 -79 0
10 29 54 90 0
3 7 45 96 0
2 35 -81 117 0
-15 75 79 -116 0
5 21 -33 -82 0
37 40 -100 102 0
57 101 -108 117 0
-27 67 -95 99 0
7 22 106 116 0
-13 76 89 -113 0
31 -46 66 95 0
-33 -51 69 -73 0
3 -5 8 65 0
-55 -73 -86 -113 0
-14 -28 46 96 0
31 -37 -55 108 0
10 -28 51 -56 0
6 -27 45 -54 0
-43 -60 -99 111 0
32 92 104 -118 0
-40 53 -79 86 0
-5 -52 94 -101 0
15 -66 -69 117 0
-37 -46 -55 -118 0
-25 -32 -56 -66 0
26 -31 52 74 0
37 -100 114 -117 0
