c description: Random 4-CNF over 150 variables and 450 clauses
c generator: CNFgen (0.9.5)
c copyright: (C) 2012-2026 Massimo Lauria <massimo.lauria@uniroma1.it>
c url: https://massimolauria.net/cnfgen
c
p cnf 150 450
41 100 103 144 0
-68 -96 105 109 0
49 -71 -109 121 0
87 99 -122 -149 0
55 64 85 -92 0
-61 99 -122 126 0
9 32 96 146 0
-31 33 68 130 0
-7 79 -92 149 0
-35 48 99 100 0
10 93 -106 137 0
20 -59 -69 -95 0
15 -71 -106 -143 0
4 -66 112 121 0
-30 89 -96 -122 0
2 30 -37 -57 0
21 65 88 -112 0
78 84 104 -146 0
-9 29 -39 -84 0
-12 59 77 87 0
5 25 -100 138 0
49 69 -88 -98 0
109 -130 139 -146 0
-21 24 -63 93 0
2 -72 -98 139 0
-16 41 49 64 0
7 30 67 -118 0
-6 -124 -132 -142 0
49 73 -123 -134 0
29 -100 113 114 0
-5 11 32 -105 0
29 40 -85 122 0
12 92 -115 128 0
-12 -16 -65 86 0
-13 -44 -95 -114 0
-103 104 -125 140 0
50 -75 -83 -144 0
65 80 83 97 0
29 -34 -101 -120 0
-9 23 -102 -122 0
29 -55 -82 -115 0
7 -71 120 -126 0
-34 72 76 85 0
-39 84 124 147 0
11 14 19 74 0
-19 92 -98 114 0
-32 -40 57 -92 0
83 -99 143 145 0
41 -43 -53 -83 0
4 -8 12 -82 0
-36 -54 63 -119 0
5 22 -64 131 0
81 -110 113 -127 0
29 -124 125 -126 0
-31 87 -91 96 0
66 68 -119 132 0
20 42 108 -123 0
-46 65 -102 -113 0
-64 -127 139 -150 0
29 56 -94 110 0
-29 58 121 -127 0
-7 -15 73 96 0
36 49 -76 -113 0
-63 101 -117 131 0
8 33 51 -72 0
47 65 100 -110 0
40 -66 -122 123 0
7 44 61 97 0
-82 129 139 147 0
-34 64 71 -87 0
18 33 81 148 0
125 -131 -148 -149 0
5 64 -82 121 0
-2 74 -127 -134 0
76 97 -108 -138 0
12 84 92 94 0
33 -54 76 -108 0
-41 42 -79 102 0
5 13 -15 -20 0
8 80 113 -136 0
20 -38 -86 -118 0
22 51 115 -126 0
17 41 54 100 0
-3 66 -92 102 0
10 54 111 138 0
59 -88 107 -132 0
12 37 79 130 0
-30 60 -102 110 0
3 -60 116 128 0
-65 71 100 130 0
-6 -89 -94 -105 0
13 54 -58 131 0
-52 65 -109 115 0
25 -34 -46 138 0
48 57 94 -114 0
-29 44 -123 132 0
-65 -91 -134 138 0
-10 56 70 117 0
-59 -84 87 89 0
11 -16 -45 -85 0
-41 64 95 126 0
44 -87 -122 143 0
-38 44 -98 112 0
-42 57 -103 -137 0
16 41 -90 117 0
-29 -46 -86 114 0
21 -42 -62 -118 0
-36 50 -114 119 0
16 -65 90 141 0
-2 42 -68 -78 0
-37 -65 108 114 0
-46 62 -85 126 0
45 119 126 127 0
10 -85 -113 136 0
33 49 84 112 0
-46 77 122 -150 0
97 103 112 117 0
13 129 -141 -147 0
-46 -49 -55 60 0
46 72 145 -146 0
-31 -33 48 -64 0
-8 120 129 137 0
14 -67 71 90 0
78 99 -108 -144 0
-7 20 -85 122 0
-38 69 -80 -136 0
27 53 73 -150 0
2 -47 71 -148 0
-44 61 110 111 0
7 -31 56 87 0
5 22 -35 113 0
3 45 110 -129 0
63 -81 -133 149 0
44 56 -98 -108 0
-58 82 -130 140 0
-48 61 -68 -69 0
-77 100 -118 134 0
48 96 104 -124 0
79 90 131 -139 0
-85 -91 -111 -136 0
16 18 61 135 0
76 -109 118 133 0
39 -87 97 -137 0
-23 37 -110 -148 0
-40 -89 102 143 0
-43 -44 90 141 0
-23 34 -62 131 0
2 37 -48 93 0
-31 52 124 -127 0
3 44 70 -118 0
54 105 -113 143 0
26 52 80 -121 0
-11 -27 -66 -93 0
55 -125 135 150 0
-36 -40 58 -115 0
-2 44 -66 -150 0
29 72 122 -130 0
99 -108 125 147 0
-17 20 46 -54 0
15 -17 -95 130 0
-19 -123 -129 147 0
-12 -18 43 46 0
102 -106 -112 135 0
-9 -53 90 -102 0
11 20 -93 107 0
-11 16 -44 133 0
-39 -69 -109 127 0
-17 19 -39 104 0
7 -28 -62 106 0
-32 90 102 -108 0
26 91 -92 93 0
32 -102 128 -143 0
51 -103 -105 -149 0
21 -23 -69 144 0
60 126 -130 -133 0
49 -97 102 -121 0
-42 -110 -113 135 0
43 -69 -102 129 0
-22 30 -57 61 0
3 12 -59 118 0
-11 69 -122 -142 0
10 21 71 -81 0
-90 -95 -112 -142 0
-2 -4 34 134 0
30 -48 124 -140 0
-46 47 -60 63 0
9 19 -42 -56 0
-8 80 -88 135 0
-5 -14 73 147 0
-5 -19 -52 -113 0
17 27 64 -79 0
-2 -3 39 -62 0
-51 -101 -115 -143 0
-73 -93 -121 141 0
-8 47 -96 135 0
29 59 84 -131 0
20 -25 -131 137 0
15 33 66 73 0
21 -28 126 -132 0
-38 -83 -84 130 0
-58 -130 132 -147 0
-14 39 49 110 0
-7 -63 72 -79 0
11 18 26 -28 0
-21 92 105 -110 0
47 59 97 -117 0
-17 40 56 -104 0
12 85 104 122 0
-38 -67 -84 109 0
-11 -31 70 93 0
-51 67 -84 137 0
-53 69 -122 -132 0
-31 -40 -72 -103 0
8 -22 -123 130 0
-10 40 -45 79 0
7 -16 24 117 0
-44 80 -85 -86 0
-50 61 -87 -102 0
30 56 -89 111 0
-19 36 -86 111 0
-4 -18 31 -49 0
-34 -35 119 131 0
17 -38 44 -81 0
39 -64 68 -95 0
-32 -44 131 144 0
49 -71 72 -121 0
33 -50 107 121 0
57 83 -126 132 0
-72 111 112 -129 0
3 28 32 -75 0
1 5 24 -145 0
-45 48 -54 -102 0
27 70 102 -135 0
-4 -21 86 -100 0
-18 85 113 -137 0
-3 53 65 88 0
-50 -73 -140 141 0
31 36 78 -123 0
8 81 104 142 0
-51 -107 124 -140 0
13 61 85 117 0
-13 -86 90 -148 0
13 63 -66 105 0
-54 -85 88 -125 0
37 -47 60 -132 0
55 -74 127 -130 0
52 -60 111 -138 0
-7 -100 130 146 0
-101 111 123 145 0
-24 64 -114 -142 0
42 -51 -86 -140 0
48 -70 -83 127 0
-8 -59 -86 87 0
-65 -67 -93 101 0
-44 -47 79 144 0
-78 81 -97 -109 0
-5 -25 33 125 0
3 -25 -31 57 0
-45 -110 -126 -129 0
33 66 93 112 0
-3 72 -119 -132 0
17 -39 40 150 0
11 -46 -91 101 0
-17 -61 90 95 0
-56 79 101 -126 0
-19 53 84 148 0
42 91 101 -112 0
-55 -69 -84 91 0
1 -23 -115 -120 0
7 -21 44 -114 0
14 20 -31 -141 0
58 -85 -133 -147 0
-54 -57 -67 -119 0
-55 -121 -126 -149 0
38 87 119 125 0
9 -37 -65 -147 0
-3 81 88 -92 0
-45 -48 -88 93 0
24 -74 -119 -146 0
27 -60 -124 -149 0
-1 6 66 119 0
19 -51 96 -135 0
-76 98 120 -123 0
-35 -36 71 134 0
51 108 115 -124 0
30 -41 -68 -90 0
-31 48 -71 84 0
-36 -58 88 -121 0
-15 -79 -89 105 0
9 19 -37 -130 0
-53 -73 87 126 0
1 35 -130 -140 0
-6 19 -31 -91 0
24 26 -91 -117 0
-43 53 -69 148 0
-33 75 78 -118 0
38 -39 57 -117 0
-22 47 107 -143 0
-28 84 -97 -113 0
6 -67 -117 -134 0
-8 101 105 106 0
13 15 90 -137 0
64 -72 -80 88 0
54 -100 -110 -113 0
12 -109 -115 -133 0
47 74 -104 -140 0
-55 93 -104 -122 0
-37 -56 -75 -78 0
14 70 81 134 0
-7 8 -45 51 0
68 71 -102 -111 0
-43 -56 60 132 0
-10 -14 21 -130 0
-11 -100 120 -123 0
-27 55 -75 109 0
-73 -94 -108 -140 0
-61 135 -137 -146 0
20 -34 107 -132 0
-49 -115 -121 -135 0
-12 -95 -104 137 0
-17 24 -75 107 0
-36 58 -75 93 0
-4 16 -46 123 0
-47 79 -91 -141 0
35 -60 73 -113 0
5 58 -103 -128 0
-42 73 -90 124 0
1 7 18 -124 0
-38 39 73 137 0
40 50 59 -118 0
3 26 144 -145 0
-8 -76 91 120 0
-73 115 -129 -141 0
79 126 -128 148 0
21 -62 72 128 0
-34 -115 -129 -137 0
-23 24 89 -109 0
61 -68 112 127 0
3 15 -70 -95 0
8 -93 118 126 0
10 -39 85 -97 0
-7 -21 22 122 0
35 -38 -85 101 0
62 -64 120 132 0
-12 -35 -52 -129 0
-22 -28 -34 72 0
23 -73 122 128 0
-13 34 -42 66 0
6 -48 -89 104 0
-42 81 83 133 0
19 46 -90 -146 0
-53 69 -85 -124 0
1 4 66 126 0
-47 -109 114 148 0
-4 -100 101 105 0
14 16 -57 -85 0
-56 65 -120 -144 0
12 -22 -57 78 0
49 54 -68 96 0
-47 -67 109 -122 0
4 -46 -66 -127 0
-14 -16 -76 -109 0
-20 52 -53 -57 0
41 56 89 111 0
-3 25 -67 90 0
28 77 -92 149 0
1 5 -132 150 0
-54 81 -126 -138 0
-43 73 113 -148 0
-20 68 74 -128 0
31 -71 -97 110 0
27 -84 126 -148 0
-53 76 -146 149 0
32 -59 -66 98 0
79 -91 93 -140 0
-39 -80 -103 -137 0
9 91 99 -129 0
19 -35 49 -93 0
-40 53 -72 92 0
-19 -72 -124 146 0
-7 9 -25 41 0
1 9 114 -119 0
-80 83 -103 128 0
-28 86 124 136 0
-20 -26 117 148 0
30 52 111 147 0
7 -15 93 114 0
1 43 44 65 0
-9 85 -102 -140 0
-54 68 -100 105 0
64 86 -98 110 0
-61 64 -98 134 0
13 -51 -66 139 0
-13 -75 -81 -129 0
-9 26 -30 -70 0
-69 -70 71 140 0
24 -38 -97 -131 0
10 -72 -101 -143 0
-20 -90 98 -104 0
-11 40 76 84 0
27 -59 -115 -146 0
-29 -96 137 -147 0
-19 -54 141 -147 0
-8 -53 -59 124 0
-23 27 -89 -143 0
63 -76 -119 -127 0
47 108 -123 126 0
-3 15 -30 -137 0
-50 -103 -131 145 0
-20 -50 51 116 0
7 -36 -100 148 0
15 25 28 133 0
27 -45 -135 138 0
29 51 -74 -125 0
-18 20 -39 49 0
-54 111 -117 -120 0
25 34 -82 -125 0
-32 -105 123 -140 0
-5 73 124 -127 0
9 35 90 135 0
67 -111 -121 132 0
-4 -78 -93 -97 0
51 -80 90 98 0
-22 -40 -49 54 0
-12 22 67 80 0
-47 -90 -106 -117 0
-10 -20 68 109 0
-34 49 -61 108 0
-12 -57 129 146 0
29 -94 97 120 0
22 -46 76 92 0
26 39 42 -121 0
82 -110 -119 -121 0
12 99 101 113 0
-47 96 119 -122 0
-14 24 31 35 0
-42 -71 85 109 0
40 -87 100 -102 0
-30 -55 58 -64 0
27 74 -90 -130 0
-16 55 -94 125 0
9 -33 45 -138 0
3 25 95 -132 0
30 -63 80 90 0
23 -32 -70 -89 0
-24 -40 -94 95 0
-71 -82 122 -149 0
47 -86 91 103 0
53 121 125 -135 0
14 -46 88 122 0
