c description: Random 3-CNF over 170 variables and 510 clauses
c generator: CNFgen (0.9.5)
c copyright: (C) 2012-2026 Massimo Lauria <massimo.lauria@uniroma1.it>
c url: https://massimolauria.net/cnfgen
c
p cnf 170 510
11 -102 156 0
12 -40 76 0
-24 74 -109 0
-9 -12 42 0
-50 -72 -84 0
3 -135 141 0
26 55 168 0
-63 66 -159 0
-50 62 73 0
-66 139 156 0
-3 -10 52 0
-8 -35 -79 0
17 108 141 0
-62 103 170 0
75 -81 100 0
94 121 128 0
1 -151 -170 0
28 78 87 0
42 56 -156 0
-11 -56 57 0
-62 -81 -167 0
-10 -71 -125 0
-74 121 158 0
-30 -36 -142 0
19 23 155 0
43 63 -88 0
-19 -111 -163 0
-67 111 -117 0
-15 -25 128 0
42 49 56 0
-47 72 -100 0
-68 -99 142 0
18 -50 69 0
1 35 54 0
-47 -58 162 0
3 -65 -163 0
-27 48 -124 0
20 -27 -73 0
-21 -23 -28 0
-72 -91 132 0
71 100 -102 0
102 -116 -164 0
10 -37 -149 0
14 36 -78 0
66 155 -167 0
2 78 -154 0
31 32 -164 0
82 -91 -108 0
-52 101 103 0
89 -120 151 0
77 85 152 0
26 -40 -150 0
-55 65 156 0
96 -112 147 0
-18 51 111 0
-5 67 102 0
-50 -102 -150 0
66 106 134 0
-3 77 97 0
18 -120 -170 0
37 85 111 0
32 80 -165 0
-2 68 -167 0
50 -116 -131 0
-18 60 163 0
-74 -96 -126 0
-1 5 134 0
68 -106 128 0
-54 -82 -85 0
-28 -81 100 0
-118 -139 148 0
-73 -127 160 0
46 84 145 0
44 -136 -140 0
-83 -107 146 0
-23 60 -161 0
-66 -127 142 0
-20 -118 -121 0
36 40 -92 0
23 -55 83 0
-1 74 -135 0
64 -69 -123 0
63 66 148 0
13 22 81 0
-56 -137 152 0
-9 -46 -94 0
8 -17 -124 0
-42 -66 133 0
-19 44 -78 0
23 -106 140 0
5 45 127 0
-30 64 125 0
26 -31 64 0
-4 -24 45 0
-71 76 -155 0
55 92 -122 0
-1 -80 154 0
-57 66 76 0
-6 45 46 0
120 135 156 0
-33 -39 108 0
-52 84 -104 0
23 29 -91 0
-35 64 -111 0
-3 26 79 0
-29 87 -155 0
-40 -111 -122 0
-85 101 -118 0
66 -79 -94 0
38 136 -165 0
-18 -131 -140 0
56 -102 -155 0
26 60 -116 0
6 -102 130 0
24 113 -114 0
-50 -69 -122 0
-98 122 -135 0
3 -4 -81 0
14 -128 146 0
-2 -4 143 0
25 -66 -89 0
112 -135 -136 0
22 29 -134 0
17 -74 -130 0
-30 -107 136 0
-26 -65 169 0
-18 -48 82 0
53 -54 -158 0
16 -103 -156 0
19 -136 -147 0
1 39 -91 0
20 112 168 0
-18 123 150 0
-54 86 89 0
30 64 148 0
99 -103 116 0
-78 -109 -158 0
19 150 155 0
-83 -91 131 0
5 -109 -135 0
37 50 118 0
36 -64 -124 0
-14 34 -118 0
12 -79 170 0
101 151 -161 0
-35 65 -157 0
-14 108 131 0
54 -79 -122 0
-68 115 161 0
11 85 119 0
-35 127 -156 0
-71 91 101 0
-7 120 -122 0
8 48 68 0
-68 -113 127 0
31 -77 111 0
-3 84 165 0
-3 -33 -132 0
56 67 83 0
88 126 -146 0
-19 -71 -125 0
4 68 81 0
-8 -99 -132 0
69 99 -167 0
126 -165 170 0
25 128 155 0
49 -78 92 0
-15 134 -169 0
-53 101 128 0
-23 -81 154 0
-45 -119 -144 0
-24 40 -102 0
15 -55 -92 0
-58 69 -159 0
-14 -109 -152 0
-8 39 48 0
64 -74 136 0
-1 -42 76 0
-32 -43 -87 0
33 -43 113 0
-15 -79 -122 0
24 -30 54 0
43 152 -153 0
113 -131 -150 0
-48 -66 -95 0
-79 -81 -124 0
19 -58 -141 0
-18 -44 104 0
-31 -114 134 0
142 161 165 0
-83 -140 161 0
61 -99 -149 0
25 43 -57 0
-2 -51 -125 0
11 69 -141 0
-75 113 163 0
-42 110 134 0
-64 -72 103 0
-73 -124 137 0
-3 -5 151 0
-28 -101 150 0
12 67 -109 0
44 -120 143 0
-11 -48 131 0
-28 -66 -164 0
84 -90 116 0
3 9 -28 0
-11 -89 115 0
42 -43 98 0
-2 -62 147 0
-22 88 -153 0
-55 136 -156 0
43 117 162 0
85 -104 169 0
-7 94 103 0
88 112 114 0
-31 129 -162 0
6 -129 -161 0
-94 110 115 0
27 99 114 0
-37 -60 169 0
16 -21 -155 0
60 -63 -84 0
-78 -126 -136 0
-45 -64 -85 0
-9 114 -130 0
35 113 -114 0
-110 -112 126 0
3 17 -61 0
34 35 138 0
41 -97 154 0
-67 98 -117 0
42 -53 120 0
-14 35 47 0
-67 93 106 0
-107 144 -145 0
-10 -60 -96 0
-7 -104 136 0
70 78 119 0
53 104 137 0
-8 10 -31 0
-2 114 157 0
-12 120 166 0
-30 -63 148 0
6 -65 110 0
27 -118 -143 0
13 88 -132 0
41 86 -125 0
-6 -89 164 0
49 -104 128 0
-8 32 -114 0
-20 41 146 0
70 -83 157 0
-41 -95 124 0
-94 100 -115 0
-9 28 -99 0
-32 41 -64 0
78 -87 135 0
22 108 110 0
81 105 -149 0
17 28 44 0
-48 88 -118 0
-59 -80 -118 0
68 71 117 0
47 96 -106 0
73 102 158 0
-36 48 50 0
1 -33 -46 0
95 -157 165 0
-136 -160 163 0
-8 -137 -156 0
-28 83 -124 0
-65 -84 -158 0
-8 27 -94 0
-44 64 -78 0
21 -116 161 0
-141 154 165 0
27 -60 -113 0
40 87 -115 0
88 -111 120 0
12 -35 42 0
-11 -22 -110 0
42 -53 168 0
-44 -48 133 0
-130 -163 -165 0
-80 -104 122 0
-6 113 132 0
-65 -149 -170 0
34 -68 169 0
21 -69 -140 0
37 53 168 0
1 73 -135 0
58 -68 80 0
-62 99 138 0
22 27 119 0
-19 -134 -151 0
-29 -130 162 0
68 128 137 0
-133 135 -166 0
-31 34 63 0
-22 -70 -148 0
-26 -77 -120 0
67 84 154 0
-4 -97 -164 0
-70 142 146 0
26 -81 170 0
18 96 -116 0
22 -35 -77 0
-13 -34 61 0
33 -115 -165 0
49 87 159 0
-104 127 136 0
-30 93 -99 0
91 -108 164 0
-6 61 -118 0
14 18 139 0
-18 32 34 0
8 128 159 0
18 -26 -77 0
-133 -146 167 0
74 -91 139 0
29 57 94 0
-38 82 -104 0
48 -72 -107 0
75 -112 118 0
33 106 -149 0
-1 -77 108 0
12 -15 140 0
-108 111 -127 0
38 51 159 0
56 -85 -98 0
87 140 153 0
-122 -152 -158 0
-57 102 -118 0
-2 -98 170 0
-29 -66 163 0
82 113 129 0
15 60 -90 0
-5 43 66 0
-33 -62 106 0
-1 105 -160 0
122 132 -151 0
39 -67 79 0
41 -47 148 0
2 77 -161 0
1 -45 120 0
-43 64 121 0
-11 -110 144 0
52 125 -150 0
-64 73 77 0
-4 94 -135 0
63 -107 -169 0
-25 -44 -166 0
-59 -66 100 0
-6 -57 -148 0
-38 50 112 0
-21 -36 119 0
41 -102 156 0
59 61 -123 0
-4 7 -121 0
28 -75 -144 0
-59 112 -140 0
-14 103 119 0
-70 -80 145 0
1 5 75 0
5 35 91 0
-50 65 -152 0
53 -57 66 0
-130 -148 -166 0
-104 -111 -150 0
41 -95 149 0
4 -98 108 0
25 -59 84 0
77 108 -161 0
-42 132 140 0
-30 -36 -117 0
-19 -33 -104 0
25 163 168 0
-69 138 144 0
-83 -112 -170 0
-56 -96 100 0
23 137 151 0
-105 -124 -162 0
-45 -47 -136 0
-43 -126 -141 0
68 110 -150 0
23 32 125 0
91 139 166 0
-70 -153 -164 0
108 -121 -144 0
-1 -7 -118 0
-64 109 136 0
-72 -117 -165 0
27 53 -163 0
-38 -69 -113 0
-21 -44 -77 0
-41 60 -155 0
84 -111 157 0
-83 91 -135 0
7 -63 111 0
-28 33 46 0
-95 -122 -156 0
-20 -40 -112 0
55 123 136 0
57 69 100 0
-10 17 -152 0
53 142 -157 0
-22 151 -163 0
19 114 -146 0
-71 103 142 0
-93 -120 124 0
-6 121 149 0
11 -28 94 0
-81 -99 -117 0
32 -38 -106 0
12 57 -114 0
-25 79 105 0
-51 -91 143 0
-5 -146 149 0
90 136 149 0
32 -89 -98 0
-57 -67 128 0
-9 -133 156 0
92 -142 -154 0
-68 -75 110 0
34 131 -144 0
-88 106 150 0
-40 -73 -112 0
41 88 120 0
34 146 168 0
13 -132 136 0
57 -109 156 0
-19 -44 123 0
6 -47 -122 0
-35 100 -157 0
-14 128 -144 0
-53 -146 -147 0
31 -85 -156 0
-26 29 122 0
1 65 -91 0
47 -122 -132 0
56 -95 135 0
-86 121 -133 0
71 154 169 0
37 -108 119 0
20 46 -151 0
85 101 153 0
8 82 -137 0
-90 -144 -158 0
-153 -158 -170 0
35 -37 -121 0
1 57 110 0
13 -97 128 0
62 70 -134 0
17 57 -146 0
-7 68 76 0
14 -65 160 0
-38 -42 147 0
-61 126 -139 0
29 60 139 0
-2 -4 -129 0
96 -118 -131 0
-132 -136 -139 0
-22 113 -156 0
-4 58 118 0
48 100 157 0
49 -61 -148 0
-3 -8 64 0
21 -26 -165 0
-21 -45 -132 0
56 -91 -169 0
-60 -138 147 0
36 37 48 0
-17 21 93 0
1 -72 118 0
-8 -88 98 0
5 53 -118 0
-25 -76 77 0
-9 -157 -162 0
28 -65 -90 0
111 -134 141 0
26 -88 123 0
-53 141 150 0
59 70 -125 0
30 -100 -121 0
-74 -115 -128 0
88 109 -132 0
52 -56 65 0
11 -43 63 0
-17 32 -110 0
9 91 139 0
-10 23 -25 0
15 25 139 0
-98 -107 154 0
-28 104 165 0
-36 -61 -69 0
46 -100 146 0
33 108 161 0
-25 -109 116 0
10 18 90 0
-84 122 136 0
71 129 -143 0
11 118 134 0
-19 -50 67 0
100 140 168 0
-41 118 167 0
-16 -28 57 0
48 -66 -106 0
7 -94 -142 0
7 48 -165 0
