c description: Random 3-CNF over 100 variables and 420 clauses
c generator: CNFgen (0.9.5)
c copyright: (C) 2012-2026 Massimo Lauria <massimo.lauria@uniroma1.it>
c url: https://massimolauria.net/cnfgen
c
p cnf 100 420
-75 88 -89 0
-37 45 46 0
22 38 -74 0
-13 -32 89 0
9 -62 100 0
-1 57 -92 0
-15 -38 52 0
3 -31 96 0
-8 -23 43 0
3 24 -77 0
25 78 86 0
18 37 -80 0
28 42 45 0
-1 -76 -95 0
-5 39 63 0
17 79 95 0
60 65 -67 0
-25 -73 -100 0
3 -42 87 0
-36 -76 91 0
-11 -76 88 0
37 63 64 0
-54 87 -91 0
-18 24 -39 0
-36 -49 55 0
-30 83 92 0
-24 89 94 0
-10 -98 -100 0
-18 -19 77 0
41 -57 -92 0
-34 36 -56 0
42 -67 70 0
-19 24 -38 0
-31 -50 77 0
22 -35 -58 0
-78 -81 100 0
-75 -89 90 0
19 70 91 0
-44 -56 -58 0
20 -62 75 0
7 24 -43 0
-8 -14 27 0
-5 -33 81 0
-6 27 -32 0
-8 41 54 0
13 -34 70 0
-7 -59 -89 0
14 74 96 0
-21 52 60 0
-23 49 94 0
44 65 89 0
-15 76 89 0
-23 -37 45 0
-68 77 -81 0
-2 -67 75 0
-8 -36 88 0
1 -17 20 0
16 63 -84 0
-8 -13 -20 0
2 56 82 0
-14 -17 36 0
-2 50 -59 0
-33 -81 -88 0
55 74 -80 0
8 -10 -28 0
-2 6 97 0
-41 46 63 0
-32 67 -68 0
-6 93 97 0
40 79 90 0
-13 -57 -65 0
-33 69 89 0
9 31 -56 0
-58 -67 70 0
19 -39 -44 0
4 14 -66 0
52 -64 93 0
3 12 62 0
2 91 -100 0
-52 -67 86 0
-84 91 100 0
46 -67 74 0
-37 49 63 0
35 -53 -94 0
-7 14 -19 0
-23 34 89 0
-18 26 -31 0
-33 -70 93 0
-36 58 -72 0
15 57 74 0
19 -20 24 0
-22 -44 -70 0
73 -75 -78 0
10 27 -64 0
-49 -51 85 0
-9 -70 92 0
-43 -74 -96 0
-37 -67 74 0
61 85 91 0
-42 -74 89 0
26 -41 44 0
-7 -19 -95 0
5 15 63 0
54 63 -68 0
11 19 -47 0
8 -38 -51 0
3 -29 -73 0
-76 81 -84 0
-82 83 85 0
-5 23 46 0
38 -73 86 0
28 46 -49 0
7 -19 78 0
-18 82 96 0
50 55 -93 0
30 -66 80 0
7 -39 -65 0
-47 -50 88 0
-3 -83 -99 0
14 27 -45 0
9 66 79 0
10 30 -45 0
-27 51 64 0
-57 -65 -66 0
-23 73 -88 0
-30 83 97 0
-2 78 90 0
-3 -33 93 0
18 78 -90 0
39 60 -72 0
7 -39 -72 0
5 14 41 0
-80 -89 92 0
42 65 -74 0
-46 -66 -72 0
-51 -88 -97 0
-9 36 48 0
-22 -33 68 0
-15 -63 -93 0
7 -29 -78 0
-7 54 -65 0
36 63 74 0
-30 55 -69 0
-16 49 -76 0
-9 -31 -65 0
27 47 91 0
-25 49 -78 0
11 -26 -47 0
-32 -92 97 0
-6 20 -56 0
-22 -27 -95 0
-8 49 -68 0
19 25 75 0
-5 -15 69 0
-70 -80 98 0
-56 -68 -95 0
13 -25 -74 0
33 60 -75 0
-2 31 -71 0
-7 33 98 0
-63 75 76 0
6 67 -83 0
27 -73 -89 0
-8 -25 -47 0
9 -14 -23 0
4 71 -95 0
6 -73 92 0
-19 -33 -96 0
-18 21 56 0
15 -54 -69 0
-32 55 77 0
-18 -52 76 0
26 -62 66 0
24 33 -42 0
-3 -36 -70 0
3 33 35 0
-10 -41 -75 0
20 21 -69 0
32 -46 -48 0
-17 -38 -94 0
-2 -21 53 0
6 -14 -85 0
-4 68 -88 0
7 8 25 0
39 -66 74 0
-2 -48 -99 0
15 37 78 0
-27 51 100 0
-26 27 -42 0
34 36 -48 0
-22 -54 -92 0
63 -82 -91 0
14 -25 -37 0
-30 57 58 0
7 65 -73 0
37 42 86 0
-7 -22 84 0
-17 -35 -98 0
-46 -75 -86 0
-1 29 -57 0
-18 29 41 0
-6 -43 100 0
33 -35 50 0
-23 35 86 0
-17 -40 -41 0
11 -25 43 0
32 57 -65 0
-1 19 -93 0
-94 95 -96 0
-36 -79 -97 0
-18 -84 93 0
48 49 50 0
17 -57 71 0
32 70 78 0
-33 -39 -45 0
62 -73 94 0
-10 21 -91 0
-8 28 -58 0
36 73 -91 0
78 -81 -85 0
67 -88 95 0
2 84 96 0
-49 60 -75 0
-34 -61 72 0
38 -47 78 0
-8 -29 -48 0
-14 59 76 0
11 -20 -71 0
28 -42 -100 0
-52 83 -86 0
-89 90 97 0
-44 50 55 0
-2 51 -77 0
-6 23 74 0
-23 84 91 0
-40 85 97 0
24 -31 -76 0
6 49 -71 0
59 60 93 0
7 37 44 0
7 -57 -100 0
-57 -66 -93 0
38 -55 95 0
45 54 -60 0
22 48 77 0
19 24 99 0
-31 65 -77 0
30 59 -96 0
58 66 85 0
9 -13 -19 0
-23 -47 52 0
3 29 41 0
9 41 62 0
23 83 -90 0
-8 -31 -43 0
-7 -9 -53 0
-52 -56 -58 0
30 47 97 0
-6 87 96 0
11 -54 -58 0
18 -50 -82 0
15 19 -95 0
5 66 86 0
35 -48 -82 0
19 -44 -70 0
8 -29 36 0
51 -73 88 0
15 75 -96 0
-5 26 -89 0
-6 -32 86 0
-12 -30 46 0
22 -37 -38 0
-13 33 -53 0
17 20 -74 0
-15 -17 86 0
-13 25 -70 0
34 86 -90 0
-2 46 -79 0
-17 22 46 0
-20 -68 -94 0
-68 -84 97 0
43 -59 -70 0
45 62 -86 0
-51 56 90 0
2 20 74 0
21 42 -98 0
-12 -17 -62 0
3 10 35 0
-10 43 -66 0
40 -42 -80 0
5 9 79 0
6 11 -18 0
9 -17 27 0
4 -26 -74 0
-30 -34 -47 0
-15 -69 70 0
-57 -74 -85 0
3 -64 -71 0
10 78 -98 0
25 74 -98 0
-16 -34 -79 0
-28 31 37 0
-27 28 -45 0
-35 36 88 0
3 21 54 0
7 46 98 0
-23 -32 92 0
-15 -51 98 0
-19 -50 63 0
-17 25 64 0
-2 85 100 0
-37 47 -90 0
8 -52 -54 0
3 -7 67 0
-63 88 -100 0
21 62 -77 0
27 81 -95 0
21 -74 97 0
17 -21 -100 0
-35 72 91 0
32 38 71 0
-4 27 -66 0
19 -32 41 0
-1 28 -49 0
-48 50 -74 0
-12 -37 54 0
-3 54 -75 0
-23 35 -75 0
-12 -45 -48 0
-14 51 -52 0
-10 26 -58 0
-4 -94 -96 0
28 -65 88 0
26 79 -96 0
-54 67 -75 0
-29 -53 -64 0
-13 -69 93 0
8 65 -99 0
-9 -82 -93 0
-31 -83 -88 0
44 57 -99 0
37 48 -55 0
51 -63 82 0
-1 -41 -76 0
23 -45 60 0
-78 84 -98 0
-14 -25 71 0
34 93 96 0
-8 48 -62 0
-17 23 97 0
-8 44 -66 0
2 -21 93 0
45 -60 -68 0
7 8 -22 0
12 48 -89 0
33 47 -53 0
12 -89 91 0
-62 -95 97 0
-8 -19 -42 0
-20 -73 81 0
-12 -48 -59 0
-54 67 72 0
-48 -70 81 0
-4 -18 44 0
41 45 68 0
53 -79 83 0
-15 16 66 0
-68 -77 -100 0
-12 -97 -99 0
-23 -24 -55 0
-22 44 -73 0
23 -65 -85 0
-23 31 -74 0
10 17 99 0
-5 17 43 0
25 -38 -88 0
-35 -59 60 0
-29 81 -89 0
29 -75 -81 0
-20 -25 -94 0
-4 -16 -68 0
33 62 -97 0
-2 53 60 0
-34 -39 42 0
29 46 93 0
15 23 -51 0
47 -90 92 0
6 -34 54 0
-5 -69 75 0
3 -8 -79 0
13 -41 81 0
-20 52 73 0
6 23 -55 0
13 94 98 0
13 -70 -76 0
66 -76 -89 0
15 -19 33 0
2 -3 -25 0
40 52 92 0
-17 -62 -66 0
-10 -77 83 0
57 -72 -96 0
16 -55 78 0
-6 57 -62 0
-65 67 -70 0
9 53 -95 0
17 -40 64 0
-4 16 -81 0
32 39 59 0
-40 -45 -69 0
-35 -79 88 0
12 17 42 0
11 65 -75 0
14 19 35 0
-16 -20 90 0
-63 84 88 0
24 -29 -64 0
-11 41 -55 0
-18 73 -74 0
53 -74 90 0
