c description: Random 3-CNF over 400 variables and 1680 clauses
c generator: CNFgen (0.9.5)
c copyright: (C) 2012-2026 Massimo Lauria <massimo.lauria@uniroma1.it>
c url: https://massimolauria.net/cnfgen
c
p cnf 400 1680
-188 -228 -396 0
74 -197 -244 0
44 122 -170 0
195 -285 -381 0
67 -73 -148 0
-103 -309 399 0
3 -90 -266 0
86 -117 -368 0
-72 116 301 0
-146 -147 225 0
243 -329 398 0
210 -295 -323 0
4 -143 324 0
291 299 323 0
114 -157 -286 0
170 313 326 0
82 174 281 0
138 172 182 0
-6 -181 -270 0
79 321 397 0
-39 -308 -360 0
-4 -54 340 0
-115 163 175 0
-142 -348 380 0
-124 -133 -140 0
-114 327 379 0
32 272 -379 0
-116 -306 -319 0
-139 -264 308 0
194 206 -252 0
-377 -381 -385 0
-53 -129 -331 0
-28 -207 -209 0
120 212 -310 0
-51 168 -230 0
135 -212 230 0
-207 -294 367 0
-218 223 -232 0
3 -74 -342 0
-90 99 261 0
44 -199 -269 0
77 81 295 0
-78 -316 385 0
169 233 378 0
-159 180 373 0
-127 -235 251 0
-192 219 346 0
-168 222 -323 0
-63 -234 -350 0
-101 133 -379 0
-56 189 201 0
-89 -153 222 0
-21 286 340 0
-40 -49 397 0
8 222 305 0
102 -240 265 0
201 -332 342 0
-139 149 225 0
55 -77 -243 0
185 299 311 0
41 -162 370 0
41 178 -265 0
-129 318 368 0
44 242 348 0
174 191 -373 0
223 -256 377 0
29 61 -303 0
-128 252 333 0
15 212 340 0
-159 -199 -390 0
-83 107 277 0
-116 -243 395 0
26 -247 -331 0
-119 -121 -239 0
117 -132 -342 0
-11 56 -243 0
40 112 205 0
101 236 -243 0
28 177 377 0
-80 -140 312 0
217 -258 -320 0
283 307 -320 0
108 -243 -271 0
113 281 286 0
221 240 267 0
-161 -323 342 0
169 -237 -382 0
-235 341 372 0
82 -287 350 0
-169 -195 247 0
266 277 -332 0
-229 367 388 0
57 223 -311 0
-194 -230 389 0
21 -200 -389 0
134 -352 369 0
-2 79 -87 0
18 194 352 0
50 -92 -334 0
195 263 308 0
-169 194 -297 0
124 -218 384 0
71 -131 -398 0
88 291 328 0
105 -112 349 0
-31 193 -369 0
6 298 350 0
-102 166 381 0
-33 65 -141 0
159 254 393 0
262 -264 -370 0
-51 -199 -224 0
162 230 234 0
-125 -266 366 0
-36 195 392 0
-83 -144 -246 0
183 -193 232 0
86 344 362 0
-125 212 -305 0
307 308 -394 0
-23 244 382 0
-167 284 -331 0
68 -165 -265 0
204 -336 398 0
-23 -107 -241 0
-297 -328 -382 0
-168 -175 202 0
-131 -228 -397 0
13 -36 -312 0
65 -264 385 0
119 -144 -375 0
-215 242 393 0
-2 166 -386 0
19 243 396 0
62 -67 314 0
178 -367 381 0
163 -287 318 0
55 219 -293 0
43 -189 -388 0
102 -215 380 0
70 202 -240 0
-118 155 181 0
-104 281 -382 0
46 76 361 0
98 -197 221 0
77 115 -142 0
-106 197 221 0
-21 230 302 0
-135 -306 367 0
18 123 324 0
165 -261 284 0
-13 175 -181 0
141 265 -394 0
-108 -154 -325 0
-16 336 -345 0
32 282 355 0
-82 90 -191 0
77 394 -396 0
-14 294 -365 0
28 -53 160 0
-17 254 349 0
274 341 354 0
-71 -133 259 0
233 313 -326 0
-160 -240 -364 0
47 187 -390 0
-1 174 -181 0
-165 256 281 0
-56 68 97 0
26 -147 234 0
64 318 -348 0
61 -99 359 0
-47 239 240 0
113 -357 -361 0
7 284 -350 0
74 141 -229 0
-137 -320 372 0
-20 165 255 0
2 -247 -384 0
-105 -239 -321 0
6 283 326 0
-18 -53 349 0
125 -221 -277 0
-61 -132 -199 0
29 43 -335 0
139 271 -280 0
41 -92 190 0
-56 118 -391 0
157 257 331 0
90 98 319 0
-93 168 371 0
53 128 -400 0
193 -332 398 0
-3 286 378 0
-190 280 385 0
-89 -155 -242 0
68 -290 -350 0
85 -174 330 0
124 194 -197 0
94 -286 -359 0
-141 214 262 0
-62 -84 -310 0
-72 141 360 0
-323 361 397 0
54 -221 373 0
-190 332 -366 0
-53 -112 264 0
20 270 -296 0
121 -294 368 0
25 206 -280 0
-87 -150 -156 0
133 209 213 0
12 143 -222 0
210 -284 -391 0
88 133 -268 0
82 137 291 0
-1 -290 -320 0
-59 -223 -327 0
-84 280 288 0
37 140 -364 0
112 190 -323 0
-14 207 -298 0
-2 36 187 0
23 238 -346 0
41 286 375 0
77 247 -296 0
199 -214 -366 0
184 266 293 0
28 91 -309 0
41 -221 289 0
-60 -172 217 0
-169 210 225 0
24 -270 -293 0
-79 -295 -359 0
-29 152 -355 0
-101 166 -248 0
-156 -282 373 0
49 81 173 0
-93 -373 -381 0
-126 -233 -255 0
-138 271 -376 0
124 233 278 0
111 -114 226 0
-182 -289 363 0
43 226 -277 0
310 331 370 0
-147 -280 346 0
-58 138 341 0
-248 -308 -381 0
-53 76 205 0
-91 380 390 0
143 246 -305 0
139 -144 -178 0
-86 -134 338 0
-246 340 -377 0
8 -131 337 0
-141 -162 386 0
-26 374 -394 0
157 -294 309 0
-189 211 333 0
132 136 149 0
-29 -172 -400 0
-1 -25 -327 0
-23 -51 -213 0
-6 8 273 0
52 -89 278 0
51 -108 -263 0
8 -153 265 0
186 291 367 0
44 -150 -217 0
81 -325 347 0
-75 -158 -299 0
85 203 362 0
169 290 -367 0
25 320 377 0
-20 85 -176 0
96 -110 347 0
96 -236 239 0
-39 -103 180 0
-100 111 305 0
50 76 -83 0
17 156 -185 0
-27 -201 -259 0
-148 253 338 0
55 147 -205 0
-70 249 370 0
-177 302 344 0
-313 -369 397 0
67 -184 378 0
1 114 -132 0
270 -299 301 0
302 310 -324 0
118 -287 378 0
-96 178 369 0
78 -193 254 0
-82 -201 -365 0
-54 -250 -379 0
-4 147 222 0
-139 146 -147 0
131 185 -326 0
-149 -165 247 0
44 247 372 0
-128 197 288 0
66 -239 261 0
-83 157 -168 0
-32 -291 -352 0
-113 -209 380 0
-6 287 -294 0
-257 -280 345 0
-15 40 -79 0
-20 130 -164 0
-245 -337 -360 0
159 244 -384 0
-135 239 -385 0
-294 -297 331 0
333 -340 -350 0
-15 -62 68 0
171 310 -366 0
-7 144 396 0
-110 -194 299 0
-6 -246 -358 0
162 -164 -183 0
-116 325 345 0
112 -284 377 0
162 -164 382 0
-306 -338 345 0
238 270 296 0
229 360 400 0
-78 -122 -268 0
-12 -114 -206 0
-22 -150 349 0
-79 184 -272 0
106 230 -315 0
-52 142 -302 0
102 155 -313 0
-71 -110 370 0
49 -134 141 0
156 -345 368 0
144 -153 -375 0
-232 -294 353 0
199 327 400 0
-48 253 -393 0
23 164 395 0
189 -328 -358 0
-45 -82 151 0
225 -246 358 0
17 -207 -306 0
79 -229 313 0
161 -222 -382 0
256 -358 366 0
84 -137 -146 0
-197 244 -318 0
-10 227 359 0
40 -124 -376 0
3 -208 -287 0
-191 -226 261 0
-28 -62 225 0
-46 -196 218 0
13 -24 400 0
-46 290 384 0
-96 174 331 0
3 166 -339 0
-110 -231 286 0
216 222 310 0
-9 287 393 0
-85 145 -328 0
224 256 368 0
87 254 -333 0
89 110 -284 0
-66 -246 -394 0
-88 -138 177 0
-266 291 -365 0
-191 -254 -282 0
-56 86 353 0
-152 -250 392 0
56 -203 368 0
-105 246 -380 0
208 -289 -342 0
15 253 -309 0
86 -269 -397 0
-40 176 284 0
-88 -176 327 0
-16 -142 319 0
-143 -175 -217 0
255 318 -339 0
-116 127 -236 0
97 -277 -377 0
-215 293 -347 0
230 249 -276 0
16 -121 -310 0
28 93 141 0
-41 227 -254 0
-38 -101 -242 0
71 257 331 0
23 93 -182 0
139 -237 -254 0
79 312 380 0
29 261 -294 0
46 222 320 0
-282 -315 319 0
20 42 161 0
48 -143 400 0
53 -169 -174 0
130 -190 319 0
101 -225 -256 0
-8 -188 243 0
-99 112 164 0
-309 326 -330 0
-61 -266 337 0
123 -202 -299 0
-139 -299 341 0
144 -193 -360 0
-269 306 -346 0
49 -175 381 0
-39 -104 -382 0
-44 -127 155 0
5 62 -88 0
61 -88 -392 0
104 -198 253 0
-4 241 -315 0
91 -367 -374 0
-154 -169 229 0
7 285 382 0
114 -140 -395 0
106 238 -347 0
-234 271 291 0
6 66 -388 0
-97 119 -281 0
-7 158 374 0
60 -200 -382 0
124 -263 284 0
-155 -312 -370 0
-33 -54 -100 0
-175 216 385 0
-180 -235 -251 0
-34 -93 168 0
-47 -168 -288 0
158 165 350 0
215 -274 -320 0
153 201 320 0
18 -197 -312 0
208 259 -372 0
1 -206 293 0
-194 -253 -345 0
-21 -88 -308 0
-52 -101 399 0
2 156 -270 0
-87 -330 363 0
-30 293 393 0
-246 -290 -330 0
-7 -355 -366 0
-68 -304 318 0
238 -338 360 0
-15 124 -160 0
-275 289 400 0
-182 -214 -372 0
-80 -89 160 0
65 299 348 0
-175 -264 358 0
-209 -324 -373 0
-91 -192 -310 0
79 205 -250 0
-61 285 346 0
-288 -347 360 0
-219 240 243 0
-290 302 -307 0
303 360 395 0
63 -175 358 0
18 -229 -319 0
-111 167 -229 0
-59 -240 -268 0
-2 132 -230 0
-155 157 338 0
-69 107 -149 0
57 -178 259 0
-329 -390 -399 0
-31 -120 -363 0
-69 86 364 0
178 -267 -384 0
-212 225 331 0
151 226 -385 0
154 175 398 0
24 -175 233 0
-1 -82 311 0
-104 -122 -379 0
145 215 346 0
220 251 -282 0
-11 33 337 0
-264 311 -342 0
-100 101 -111 0
-32 -43 -310 0
29 -209 -373 0
-72 -181 368 0
167 344 -382 0
32 168 -400 0
-96 -229 382 0
190 306 380 0
29 -156 393 0
268 -368 392 0
121 147 377 0
367 -388 -395 0
-26 186 272 0
263 328 -338 0
-8 156 -318 0
121 -194 -223 0
115 -220 273 0
91 295 -382 0
8 131 179 0
18 -111 -363 0
6 256 -322 0
-19 68 338 0
-76 -154 325 0
-113 121 310 0
-75 -183 232 0
-29 -122 -322 0
148 -153 -320 0
121 324 348 0
57 -232 254 0
-77 255 393 0
-17 -176 279 0
-26 46 195 0
-231 348 -369 0
-11 156 266 0
46 69 110 0
3 9 307 0
31 -49 52 0
-104 185 337 0
108 -120 -320 0
19 -203 346 0
9 205 289 0
220 -265 -327 0
-243 301 366 0
140 354 378 0
175 -341 380 0
-137 -145 -227 0
-23 45 207 0
53 61 -98 0
-94 138 -368 0
-4 -83 -151 0
67 122 175 0
-169 -338 350 0
75 283 -367 0
120 250 -251 0
136 232 -366 0
-95 97 -266 0
-35 -175 -179 0
-44 160 294 0
-51 219 -382 0
2 -95 -363 0
33 310 383 0
-288 -344 -357 0
-49 -159 367 0
-102 181 -235 0
40 -132 -272 0
-127 139 336 0
140 -170 328 0
7 -203 339 0
-96 -288 -336 0
70 -236 -312 0
-106 -167 333 0
-59 60 -296 0
-105 -150 -282 0
-143 -221 318 0
97 -181 -321 0
-238 -263 328 0
290 -345 375 0
140 -184 388 0
51 80 -315 0
81 -167 400 0
-71 332 -375 0
126 129 147 0
-76 303 -365 0
-220 264 -283 0
-4 191 -242 0
30 45 240 0
47 -126 395 0
-14 -186 343 0
-39 61 -266 0
155 161 -340 0
-111 -211 -295 0
-73 -134 236 0
277 287 -336 0
-1 -165 245 0
147 -235 250 0
-58 -156 -179 0
-125 -308 336 0
-41 63 265 0
153 -255 -299 0
-54 124 -148 0
-90 106 -375 0
-91 -183 361 0
-106 203 226 0
-172 -201 283 0
290 -292 -377 0
-284 -314 -329 0
-128 274 289 0
227 -285 331 0
-114 158 -178 0
113 130 -187 0
-167 -204 -250 0
69 90 -211 0
-203 -258 -389 0
220 -309 -393 0
76 88 379 0
-97 -284 340 0
-158 -260 394 0
102 247 -360 0
80 95 384 0
263 301 -369 0
15 -58 364 0
120 -238 -319 0
-233 248 393 0
-68 -226 361 0
-51 -115 -133 0
-136 170 -322 0
-80 -142 -366 0
-34 176 -358 0
-188 -213 -325 0
144 208 218 0
62 265 311 0
-84 132 150 0
64 -84 95 0
60 -101 369 0
4 29 388 0
-40 -381 393 0
-123 -300 322 0
-303 -329 -389 0
56 313 390 0
50 134 -259 0
-184 -293 385 0
-18 -206 266 0
15 317 -386 0
66 -262 -299 0
258 -295 -371 0
-95 133 -228 0
17 27 225 0
214 259 374 0
-82 240 -386 0
-55 -121 -296 0
-32 -44 -195 0
17 -240 362 0
218 271 -382 0
111 -144 373 0
10 -19 -201 0
-24 75 -355 0
99 -351 -386 0
161 336 -342 0
-135 -292 366 0
76 177 378 0
-206 -260 371 0
-84 -87 -386 0
13 38 -127 0
28 98 -381 0
27 53 344 0
-150 179 312 0
-139 212 347 0
-29 -113 -161 0
72 -130 -372 0
-125 155 255 0
-44 -90 354 0
52 126 386 0
141 -358 -372 0
7 341 -358 0
-156 162 -285 0
151 -328 -380 0
-85 -176 221 0
-135 231 292 0
81 84 -311 0
-68 -83 -218 0
-36 182 -237 0
-219 -229 -311 0
-3 -34 257 0
103 340 386 0
55 217 268 0
194 -232 303 0
27 -120 -182 0
5 263 -375 0
82 -314 371 0
-85 -120 192 0
-327 -330 369 0
193 -195 196 0
-92 -205 -381 0
-77 82 -215 0
244 262 282 0
11 -151 358 0
-118 -309 376 0
84 123 -251 0
-73 85 183 0
10 -188 260 0
-6 -23 206 0
241 351 357 0
46 51 -391 0
-151 280 -302 0
81 -213 244 0
133 302 359 0
134 190 269 0
-115 -223 314 0
-125 194 313 0
-40 101 -324 0
-30 -82 -388 0
-36 -122 311 0
138 -279 -312 0
-228 274 -351 0
145 322 376 0
-176 -182 -392 0
-79 313 -315 0
-38 182 -319 0
-50 -105 393 0
-141 290 -387 0
128 -304 -343 0
118 148 185 0
96 247 303 0
-144 330 -386 0
-104 -351 -377 0
-55 199 215 0
-84 -281 335 0
-120 -194 -239 0
-193 -268 -329 0
98 -191 285 0
246 -318 -368 0
-45 104 347 0
-36 -201 -347 0
-39 -70 -167 0
-67 -151 257 0
13 -26 -315 0
93 -217 -229 0
105 -148 301 0
59 -91 -121 0
24 253 -324 0
-170 215 312 0
138 -222 -308 0
26 -32 -202 0
-308 324 -341 0
2 -90 -361 0
-44 97 368 0
235 -241 246 0
79 -151 -265 0
-148 -339 377 0
218 228 -257 0
-27 -207 315 0
-120 -345 -386 0
35 256 -314 0
169 287 377 0
162 -271 -329 0
-26 -167 -266 0
-43 280 -394 0
134 -329 -331 0
181 -275 350 0
-217 249 -364 0
14 175 -323 0
76 -121 380 0
-3 6 -206 0
-121 125 195 0
190 -215 326 0
-149 250 390 0
-253 263 271 0
-66 -112 244 0
-161 234 317 0
119 167 -180 0
-82 224 300 0
-14 -209 -215 0
19 33 105 0
-74 -163 -165 0
-359 -364 -392 0
128 -140 -257 0
-194 247 -255 0
42 -144 -279 0
-108 -198 -334 0
285 339 -380 0
-49 -173 368 0
13 -152 -243 0
-267 290 -371 0
-45 110 293 0
86 -161 187 0
-78 162 -196 0
-103 180 -381 0
55 60 127 0
-297 318 337 0
22 -131 -287 0
-27 43 102 0
-73 -141 382 0
-22 242 -312 0
-47 -257 -339 0
-6 -91 112 0
61 62 334 0
35 -197 -352 0
112 -206 337 0
-160 177 224 0
-92 287 -313 0
-80 -195 -365 0
-69 219 329 0
-66 245 -273 0
97 -346 392 0
-52 62 153 0
-165 306 354 0
183 308 337 0
-14 -108 -212 0
-42 299 335 0
247 275 -393 0
-223 -288 -345 0
-5 38 109 0
-61 257 -354 0
-116 179 368 0
43 -112 205 0
144 -210 374 0
-241 -285 290 0
-13 40 353 0
-6 -49 -327 0
-20 -116 376 0
-127 143 369 0
-4 -346 -393 0
-62 -138 214 0
-102 -116 -256 0
116 -123 189 0
-9 127 310 0
-90 -102 -155 0
134 147 299 0
205 -288 -365 0
159 248 290 0
155 230 375 0
-54 211 -336 0
-12 -74 266 0
42 -57 -399 0
-88 -215 294 0
-235 287 -381 0
-73 -199 -296 0
7 141 258 0
-17 250 395 0
119 -226 280 0
206 -329 -375 0
-28 255 -320 0
-74 130 -229 0
-53 -72 185 0
3 109 281 0
10 147 -191 0
61 -72 325 0
210 -319 333 0
63 113 204 0
142 -286 -311 0
-99 -238 -258 0
50 -103 -239 0
-75 -378 384 0
7 97 -387 0
-121 166 -391 0
-130 -244 -254 0
-208 -264 287 0
1 -279 -340 0
6 -216 264 0
50 -75 -296 0
10 89 226 0
-39 -223 350 0
188 250 -297 0
103 -190 245 0
16 -140 -152 0
-147 -212 -290 0
-209 -335 383 0
-311 344 360 0
-48 67 209 0
-1 -127 -237 0
-57 156 191 0
32 -196 -295 0
324 333 349 0
16 -161 253 0
-43 -363 -396 0
-99 -101 -375 0
269 284 337 0
-25 185 325 0
-13 -237 381 0
-97 -126 -231 0
88 285 -392 0
66 347 360 0
-199 -256 -358 0
96 100 -136 0
-107 -239 -358 0
-195 -241 362 0
49 -138 234 0
56 103 307 0
-194 -304 353 0
-225 267 -330 0
130 157 -210 0
-61 -74 250 0
123 290 -338 0
220 -309 327 0
39 186 -192 0
-183 -299 363 0
30 -142 367 0
-38 -58 306 0
28 -86 -337 0
-108 270 364 0
155 223 264 0
-109 -172 365 0
61 130 -256 0
-262 -364 -376 0
211 -342 -371 0
271 341 358 0
176 200 -232 0
75 -201 -253 0
66 374 -383 0
-75 -248 -396 0
78 -101 213 0
-16 175 355 0
82 -356 -397 0
87 161 -257 0
-27 53 -89 0
-200 -254 -349 0
42 386 392 0
196 -198 362 0
86 211 312 0
-16 -138 -205 0
50 -289 369 0
-25 -180 375 0
-49 86 -131 0
-11 53 -308 0
109 -296 332 0
164 -245 -317 0
106 145 -343 0
-33 361 371 0
12 234 245 0
-215 379 -395 0
-23 -164 -283 0
160 356 395 0
-198 326 340 0
-61 -80 369 0
-43 -165 -366 0
-109 196 -383 0
-11 80 -347 0
-57 149 258 0
56 289 -363 0
31 93 -170 0
154 198 332 0
103 315 328 0
79 163 355 0
151 219 262 0
106 220 -345 0
-24 131 -195 0
-5 -79 116 0
105 -134 -192 0
-2 -224 232 0
-36 -120 351 0
90 270 397 0
-36 256 268 0
41 -321 -356 0
39 -127 -244 0
192 -194 334 0
-119 -139 359 0
80 -191 296 0
-230 233 308 0
130 -143 -194 0
213 -352 380 0
-102 -168 177 0
141 -169 176 0
-234 303 -308 0
-163 302 394 0
103 190 -330 0
62 175 326 0
86 190 -385 0
156 296 -375 0
-101 -195 263 0
109 -227 -266 0
-78 293 -393 0
-279 -342 347 0
-11 338 -354 0
68 -167 -333 0
-52 -215 288 0
-109 -116 238 0
159 -177 -361 0
-325 334 -344 0
-82 169 -216 0
-59 -83 -261 0
57 208 -329 0
-185 -289 388 0
50 -333 379 0
-137 253 324 0
24 43 -251 0
112 184 -309 0
173 -199 -394 0
63 -310 349 0
-143 233 326 0
-60 -336 381 0
-106 128 -236 0
-146 318 387 0
61 73 323 0
10 -89 90 0
-262 290 -350 0
-78 -196 389 0
-43 -212 -379 0
-37 -347 -374 0
-183 237 243 0
-148 -188 209 0
-73 -141 -347 0
-136 -246 396 0
98 -120 224 0
213 -223 330 0
-211 319 378 0
-67 -378 395 0
-50 96 -284 0
53 -145 399 0
-119 -272 316 0
122 208 367 0
-28 -160 297 0
-62 -274 -286 0
-70 -191 346 0
277 286 383 0
-70 259 294 0
44 104 366 0
-130 -257 -275 0
-163 -224 255 0
-279 -360 -376 0
-86 -244 286 0
-26 106 295 0
181 209 -291 0
91 194 266 0
6 -37 -272 0
-33 169 332 0
-108 -191 255 0
-140 303 -348 0
126 203 399 0
-99 -138 -291 0
61 -63 -363 0
-151 249 -385 0
-9 -272 -369 0
-122 -213 319 0
-44 -229 -266 0
51 326 370 0
-72 119 -263 0
-168 -254 -345 0
-134 -153 184 0
-210 231 257 0
-99 -237 -331 0
-208 -275 -374 0
138 209 326 0
3 -9 387 0
28 31 317 0
250 -310 381 0
-45 -243 -334 0
70 -71 -163 0
155 179 284 0
60 234 -301 0
-165 166 -249 0
30 -98 -359 0
124 -238 -306 0
269 -339 -368 0
-4 159 282 0
-122 -125 322 0
100 -153 -281 0
-152 -205 321 0
-190 272 -344 0
58 181 299 0
120 -138 141 0
-110 -233 -297 0
53 -147 363 0
-77 -166 -185 0
-64 76 364 0
-157 -208 -389 0
72 348 370 0
-16 154 -216 0
-193 -218 368 0
-44 -186 381 0
-4 39 -134 0
-169 204 -265 0
-98 -190 224 0
101 324 396 0
33 -56 159 0
55 -164 349 0
-239 277 379 0
39 306 -399 0
-4 -131 224 0
123 173 350 0
-74 -252 295 0
167 -259 -265 0
-83 -247 -318 0
-46 -278 360 0
116 -276 295 0
-1 -13 -53 0
78 -150 368 0
-87 185 -231 0
117 -176 -209 0
-4 126 -251 0
-304 312 -318 0
9 83 -129 0
-1 140 333 0
2 276 -351 0
154 -165 -239 0
-144 166 -355 0
-78 -131 -358 0
81 113 -297 0
-71 -178 386 0
-273 320 371 0
-105 114 -282 0
-219 260 -321 0
-141 -270 364 0
213 261 366 0
-127 157 182 0
-204 315 -379 0
-210 -284 -306 0
103 -185 -311 0
-53 183 232 0
-59 -107 340 0
-245 -352 391 0
70 -257 265 0
-18 251 253 0
59 297 -382 0
-254 -288 -306 0
-61 -340 364 0
322 -329 370 0
-307 309 -371 0
50 175 382 0
89 92 311 0
-210 -281 -398 0
-36 -81 -195 0
-18 133 -364 0
-96 144 -218 0
156 -306 317 0
152 279 -292 0
123 165 -257 0
98 -272 330 0
42 95 227 0
3 -216 -228 0
57 -246 -326 0
-198 -205 -363 0
-3 146 -199 0
66 94 -189 0
-81 235 -304 0
170 237 287 0
230 -242 274 0
-116 -213 -220 0
119 151 -187 0
-42 -364 -383 0
-6 -161 -391 0
-102 241 389 0
-42 -263 -321 0
-114 -169 372 0
-147 312 348 0
-206 -209 -290 0
121 243 290 0
-361 390 -395 0
-221 254 -387 0
21 -57 -125 0
-254 258 -369 0
-315 -342 386 0
123 -369 382 0
-1 193 -347 0
-12 359 392 0
4 296 -392 0
-93 291 -317 0
-216 309 355 0
-215 -285 -393 0
8 262 348 0
12 71 -122 0
32 101 -162 0
-180 -235 357 0
3 -73 -244 0
-86 -291 -304 0
-306 348 380 0
167 -363 390 0
-121 -272 323 0
-53 65 -135 0
22 -255 -289 0
26 247 348 0
181 -323 330 0
-20 -342 353 0
166 220 394 0
19 287 -365 0
-26 229 -355 0
95 158 -230 0
-102 190 -215 0
-73 138 374 0
-98 100 -243 0
-87 331 372 0
-151 207 308 0
-145 165 -312 0
4 -137 396 0
-54 184 292 0
74 -273 -274 0
-184 -227 304 0
-13 81 356 0
-191 283 -386 0
261 295 376 0
-85 -137 371 0
-83 -148 334 0
153 -233 -358 0
9 -21 162 0
-141 -151 325 0
-20 -172 231 0
58 -264 -294 0
-5 145 -248 0
119 -218 -349 0
-48 -74 -202 0
96 131 -283 0
233 -288 -334 0
151 -253 274 0
-169 208 -320 0
-78 293 -307 0
92 -136 161 0
12 -132 196 0
77 -270 365 0
-67 -229 359 0
10 -247 -358 0
60 -136 -388 0
21 29 -353 0
263 -344 -346 0
-65 212 253 0
9 -136 183 0
172 289 330 0
-104 235 297 0
-218 -246 291 0
94 -268 292 0
-204 217 -375 0
75 227 -233 0
-9 -201 349 0
217 359 -397 0
-48 -223 -381 0
-46 -313 385 0
-208 -337 -340 0
-103 222 -268 0
-50 80 -400 0
-189 241 347 0
-23 99 315 0
-96 -247 -330 0
83 291 -316 0
5 -84 -201 0
23 -282 319 0
1 -48 242 0
-69 122 -286 0
49 298 384 0
16 -346 387 0
-129 -157 -274 0
228 262 357 0
249 -267 348 0
-12 45 186 0
-145 -197 279 0
-223 -302 353 0
-16 54 399 0
-82 -279 379 0
-83 -153 -317 0
-42 48 349 0
12 222 -356 0
-33 144 380 0
-35 -82 250 0
-121 -148 -217 0
71 133 -332 0
-242 -295 400 0
20 47 -161 0
-44 231 324 0
-140 210 -250 0
-34 -64 -73 0
-120 -182 272 0
81 233 346 0
79 182 211 0
133 -200 400 0
-44 107 -362 0
16 289 359 0
86 -109 -222 0
130 -328 383 0
2 28 210 0
-56 129 209 0
-45 -61 218 0
3 162 -389 0
97 222 378 0
-7 -136 374 0
-23 -81 184 0
24 30 155 0
223 230 263 0
-31 -127 222 0
-24 87 -297 0
172 -331 366 0
-324 -328 -355 0
-29 31 183 0
159 -163 350 0
8 -221 -368 0
-156 182 385 0
64 102 335 0
45 -155 399 0
183 -204 -297 0
-211 -292 342 0
63 -122 371 0
170 288 -361 0
-7 -199 -335 0
37 42 128 0
-24 -97 236 0
191 222 273 0
-134 -143 177 0
102 -129 209 0
-33 -286 332 0
-138 271 -330 0
81 -256 279 0
109 -325 339 0
-33 236 -324 0
52 313 390 0
-114 -184 -296 0
-127 297 346 0
99 179 -394 0
-84 -294 -358 0
19 144 -235 0
-67 79 147 0
-68 125 -215 0
-21 -337 398 0
-112 -143 -170 0
212 279 285 0
-272 -338 -346 0
-54 -65 -248 0
-4 137 -352 0
-18 176 -230 0
-231 -250 279 0
-27 -108 341 0
-45 216 -250 0
65 -167 338 0
20 78 -203 0
66 137 263 0
-164 -174 -357 0
-136 -308 368 0
-149 179 232 0
32 161 355 0
97 227 -352 0
206 284 -394 0
37 -162 171 0
211 309 352 0
-170 301 -367 0
-229 -282 385 0
45 -279 -363 0
19 239 352 0
-147 224 -246 0
-41 -114 397 0
21 51 355 0
-34 259 -391 0
-139 -179 -284 0
-188 265 -297 0
209 -251 391 0
8 62 -115 0
134 211 -302 0
108 336 -398 0
51 -247 330 0
58 319 343 0
-48 -178 -343 0
60 -200 -203 0
-3 248 269 0
39 -101 -131 0
126 -142 329 0
-70 84 188 0
105 -172 -185 0
107 -231 321 0
68 131 149 0
-24 70 378 0
295 303 -360 0
-88 184 384 0
-177 191 257 0
-15 -21 361 0
36 -237 275 0
-51 264 -299 0
18 -197 315 0
109 212 -346 0
-252 -262 270 0
88 232 288 0
81 134 356 0
-251 254 349 0
-116 177 327 0
2 16 353 0
-59 -236 -310 0
-57 -164 -236 0
344 361 -382 0
219 263 341 0
30 -34 -274 0
60 86 321 0
-218 -314 -368 0
74 -87 -149 0
-103 -251 -260 0
-72 318 375 0
254 -289 -390 0
-82 217 237 0
48 169 328 0
-155 193 -237 0
5 -128 233 0
-25 -190 -215 0
-46 67 -182 0
-3 -57 149 0
-12 297 -387 0
-107 145 263 0
129 -190 -304 0
118 -360 -392 0
172 -287 -318 0
102 142 290 0
-32 -293 -355 0
-274 -332 351 0
-88 91 -326 0
126 235 -313 0
215 -284 -316 0
113 -151 -276 0
-48 164 170 0
45 78 99 0
137 -214 -306 0
60 165 -174 0
-144 -297 -372 0
133 -141 167 0
71 217 394 0
-19 -24 173 0
117 -265 -389 0
-83 -163 258 0
-17 209 274 0
-25 -262 351 0
-172 215 316 0
47 83 -379 0
-190 234 293 0
48 -51 290 0
227 -255 -356 0
-48 143 251 0
-66 -96 164 0
-47 199 223 0
263 394 -400 0
161 262 -341 0
116 -152 217 0
-215 285 387 0
-16 32 -241 0
-145 221 294 0
-55 -146 201 0
63 -157 -285 0
57 -65 145 0
-14 101 -306 0
-3 -135 340 0
241 316 385 0
217 289 347 0
-2 -289 -399 0
-231 239 272 0
-225 -245 290 0
-62 209 351 0
-235 -250 -292 0
-61 -87 295 0
245 -331 346 0
119 227 309 0
149 -154 -309 0
116 -153 -355 0
-41 -180 -200 0
99 -174 204 0
78 180 -361 0
116 321 -337 0
143 -233 -279 0
149 316 -328 0
177 184 -199 0
-45 83 -197 0
-274 -335 -385 0
150 317 379 0
39 151 220 0
-5 91 379 0
83 -183 189 0
186 208 -251 0
-147 265 -388 0
16 144 215 0
-183 299 349 0
70 -182 -222 0
-68 110 -396 0
152 -205 -323 0
17 -56 -105 0
86 -271 377 0
-28 193 289 0
-58 254 284 0
-83 -164 232 0
-123 233 -384 0
-186 202 -357 0
64 225 247 0
146 147 -355 0
-61 158 -200 0
146 -192 389 0
268 302 378 0
9 97 -325 0
143 -313 314 0
58 -230 345 0
-24 176 188 0
-12 -79 -270 0
12 140 -261 0
313 -359 360 0
220 327 -359 0
61 134 356 0
-74 -123 138 0
56 85 205 0
57 -211 265 0
42 -151 257 0
130 139 285 0
335 -338 383 0
-91 180 -271 0
-51 78 280 0
-156 336 -372 0
-71 -114 -289 0
-69 186 228 0
23 -262 309 0
194 229 -275 0
57 -73 223 0
146 270 357 0
-85 -108 -381 0
173 -337 377 0
-29 -37 -203 0
-75 281 332 0
129 229 -297 0
154 181 -191 0
-211 232 -251 0
40 226 396 0
-189 281 345 0
172 -190 -324 0
2 -7 -113 0
-118 -240 -255 0
-97 -128 -157 0
24 -80 364 0
-91 -152 -314 0
38 306 308 0
225 -233 -242 0
-9 -196 315 0
-247 343 -360 0
-1 105 -337 0
-79 -223 -309 0
41 -67 196 0
-127 -152 -333 0
85 250 -330 0
-9 -83 -321 0
-138 -247 323 0
284 -287 -358 0
16 -257 304 0
-163 295 306 0
24 -152 214 0
80 123 -377 0
-311 -317 356 0
9 145 230 0
-135 -191 -220 0
14 129 333 0
-134 -226 -366 0
-11 -160 332 0
224 -279 366 0
176 -187 261 0
126 131 323 0
-191 325 -385 0
-262 363 378 0
-160 -161 163 0
-10 246 -346 0
-268 339 -345 0
-10 286 316 0
203 -282 365 0
-27 57 346 0
-215 299 327 0
78 -216 311 0
-142 223 376 0
43 138 379 0
-4 -17 -336 0
-275 315 -328 0
88 -90 -333 0
36 -208 -209 0
-12 -21 77 0
200 -289 330 0
149 -151 237 0
-4 -272 -387 0
-27 -193 -310 0
-60 131 135 0
128 -140 -336 0
-69 248 325 0
223 -246 -273 0
3 -307 -342 0
156 -206 -390 0
-298 304 -370 0
180 335 389 0
149 -155 366 0
-62 215 -308 0
180 -356 376 0
-248 -263 356 0
-81 267 -358 0
115 168 -365 0
-223 247 375 0
-5 -92 -218 0
-118 -325 327 0
38 73 144 0
217 221 389 0
-95 122 129 0
-88 114 246 0
315 -359 -368 0
111 -290 329 0
-79 -247 -283 0
-50 96 375 0
141 -234 -269 0
273 -324 -375 0
-276 370 371 0
97 135 154 0
-276 -322 -356 0
-108 -109 146 0
-153 -179 310 0
129 -309 364 0
77 -304 -351 0
-29 -231 -382 0
-88 144 -394 0
31 278 -377 0
-139 222 -274 0
-90 -295 -325 0
-94 -240 -299 0
5 8 -272 0
55 -104 134 0
105 276 291 0
120 137 320 0
-18 -121 -246 0
140 289 303 0
-23 -75 147 0
151 273 359 0
-109 136 -224 0
-147 -219 -272 0
-113 -352 379 0
-65 -106 120 0
-74 -182 267 0
-232 -293 373 0
49 -104 -384 0
124 -336 381 0
-25 -115 -186 0
63 -162 347 0
-189 -199 205 0
-4 85 -310 0
46 77 -363 0
117 195 310 0
-153 -172 -335 0
-19 -272 -352 0
-50 55 88 0
229 -315 392 0
62 -123 396 0
29 180 349 0
70 106 209 0
-123 -184 -243 0
305 329 -363 0
-36 59 -147 0
-177 -236 299 0
-147 201 -332 0
-59 -72 -379 0
103 -172 176 0
160 -319 -379 0
-66 71 -326 0
-7 -37 -146 0
88 290 -325 0
63 270 -368 0
34 -79 -182 0
-18 -169 -367 0
-111 -264 376 0
-84 196 309 0
-66 269 -274 0
-306 316 -359 0
16 -128 -284 0
-12 335 383 0
-7 80 -322 0
73 -353 395 0
12 151 -228 0
44 124 203 0
20 317 352 0
-82 -113 -151 0
-192 272 273 0
19 120 342 0
-75 184 306 0
322 -337 -373 0
-25 151 -265 0
2 84 -398 0
-56 185 -343 0
74 -290 323 0
56 -86 -193 0
-40 50 345 0
50 -64 -192 0
-100 -128 384 0
76 172 -264 0
106 255 -346 0
66 83 191 0
-55 95 -135 0
-145 215 348 0
182 258 -262 0
34 215 -246 0
-208 -255 -386 0
49 -152 369 0
307 -312 -367 0
69 289 -322 0
55 -384 389 0
-186 -366 369 0
210 -221 360 0
70 -268 -370 0
14 -74 93 0
26 -319 334 0
53 234 259 0
-178 -336 398 0
-2 -3 242 0
-11 -141 209 0
229 -287 329 0
-205 -343 381 0
171 -203 -211 0
40 223 228 0
62 -343 360 0
