c description: Random 4-CNF over 90 variables and 270 clauses
c generator: CNFgen (0.9.5)
c copyright: (C) 2012-2026 Massimo Lauria <massimo.lauria@uniroma1.it>
c url: https://massimolauria.net/cnfgen
c
p cnf 90 270
10 22 -43 -48 0
10 11 -20 -68 0
7 -44 51 -83 0
37 62 -73 74 0
1 -49 -75 -84 0
44 -61 73 -87 0
-9 22 25 48 0
-26 -36 42 -70 0
34 -39 -58 -84 0
-7 -22 -30 -34 0
40 60 -85 -90 0
17 -62 -77 -82 0
4 -42 -55 60 0
2 -62 65 66 0
32 37 -66 -80 0
-13 -62 75 -86 0
9 -35 64 73 0
22 -59 -76 -79 0
-5 -9 17 78 0
53 -54 -72 -76 0
-34 72 74 79 0
-36 -48 52 -61 0
-65 66 -79 85 0
-16 60 -73 -86 0
27 -39 40 -64 0
55 59 65 74 0
9 43 -50 -61 0
8 9 20 -90 0
-21 26 -32 -39 0
15 40 -42 84 0
4 27 63 -76 0
-50 -73 81 -85 0
-11 21 -52 -81 0
-18 35 -43 82 0
9 -10 40 -60 0
40 66 -73 -85 0
-8 -13 62 -80 0
70 77 81 88 0
1 26 46 74 0
10 -21 -34 35 0
4 -59 -79 -85 0
4 -58 61 -79 0
-13 49 70 78 0
42 44 66 -68 0
17 -67 77 -78 0
34 45 -52 87 0
-10 -24 -28 -33 0
16 29 63 82 0
42 -64 -73 74 0
-8 -28 31 51 0
3 8 38 70 0
-1 12 -34 -65 0
8 -22 24 63 0
17 20 -24 -65 0
-41 -54 65 -85 0
4 24 26 89 0
-15 -21 25 -75 0
2 -33 -56 -62 0
-10 46 51 81 0
65 -71 -79 88 0
-6 -41 47 71 0
-26 35 -40 -84 0
8 34 -56 -87 0
11 -47 -53 54 0
-7 -20 -25 55 0
-32 45 -49 76 0
-4 24 -41 -66 0
-5 16 -37 -59 0
4 -11 -12 -32 0
-39 41 -74 86 0
8 15 -56 -77 0
-31 34 -50 76 0
3 21 -53 69 0
8 -21 -42 84 0
-1 6 -25 -86 0
-22 -51 70 83 0
24 -26 66 70 0
-11 21 34 -63 0
33 -34 58 -84 0
-22 -40 -84 90 0
12 -16 25 -75 0
-32 49 -56 -70 0
2 -4 -31 64 0
1 -21 29 -75 0
-7 -14 -29 -37 0
42 -56 81 -84 0
10 45 65 67 0
45 -47 -82 -83 0
-19 -55 63 85 0
-26 -68 75 -80 0
-36 -54 63 72 0
-28 68 69 -80 0
-9 -15 -33 -49 0
-2 26 -29 56 0
-37 55 -83 86 0
10 49 63 87 0
-47 48 53 -58 0
29 -38 -45 84 0
12 23 -60 -90 0
-2 -11 23 -79 0
-60 -69 70 89 0
-50 -82 -86 88 0
6 -18 -23 39 0
-2 -15 -45 86 0
-19 -41 -51 73 0
3 -12 28 88 0
-10 51 77 -79 0
10 -17 47 64 0
49 -50 -54 64 0
-30 38 49 -80 0
7 17 -24 -71 0
-30 -50 -85 -88 0
3 15 18 -65 0
-48 -73 -79 -87 0
-41 46 67 78 0
-34 42 45 -80 0
16 49 -52 -64 0
-11 -25 -39 48 0
-16 18 42 89 0
10 -11 25 63 0
12 47 -73 85 0
-35 46 68 69 0
-22 -62 -67 83 0
-1 50 52 55 0
-7 43 53 -65 0
-32 -35 36 -42 0
26 -45 49 -68 0
-15 -59 79 88 0
-12 35 56 -90 0
22 57 86 -90 0
32 38 76 -85 0
-37 -43 -66 82 0
-20 28 44 55 0
-7 -17 27 54 0
15 63 -80 -84 0
16 -35 -74 84 0
-7 -33 -63 74 0
-15 -18 53 65 0
-6 -23 -28 -50 0
12 -23 -25 69 0
19 43 -48 -64 0
-11 -12 -54 66 0
-44 47 49 89 0
26 39 46 51 0
3 5 18 -23 0
-4 20 30 -51 0
-20 58 -64 -65 0
7 -18 19 25 0
-33 -47 60 -84 0
-36 -38 -48 -80 0
2 3 -42 88 0
20 52 -72 -75 0
2 81 -85 88 0
55 -67 76 -85 0
2 -30 -50 52 0
-7 -35 -42 63 0
11 25 86 -89 0
12 -50 -60 -83 0
1 30 59 -83 0
12 29 -44 82 0
-14 -50 57 67 0
-42 48 71 72 0
-10 -19 -27 -79 0
22 27 -36 39 0
-2 59 -66 -67 0
27 45 61 -62 0
2 -45 51 -53 0
9 12 29 -67 0
-40 44 74 -76 0
-53 -54 58 -87 0
18 -53 54 70 0
9 16 -27 -64 0
-16 17 32 76 0
2 14 77 84 0
5 6 12 -57 0
31 46 -73 89 0
-65 -67 69 90 0
28 29 -33 -41 0
1 23 -55 68 0
-29 30 -40 -47 0
-43 50 -61 81 0
-1 6 -73 90 0
4 23 -34 75 0
-39 -63 72 86 0
-11 -19 32 81 0
16 -22 32 68 0
-24 28 53 77 0
19 -79 -82 -87 0
16 -31 61 76 0
-10 12 24 -80 0
-12 -44 -54 63 0
10 -16 -24 60 0
2 -3 -42 -46 0
-14 -25 -43 69 0
-25 47 -74 83 0
8 -22 -31 -45 0
-9 -17 19 -36 0
-18 -28 36 -38 0
-51 -59 -74 90 0
12 -36 -83 90 0
-4 -5 -41 65 0
-10 -37 54 -67 0
22 -49 -77 -79 0
-9 -27 36 -59 0
-2 -19 48 -68 0
22 -33 -89 90 0
-6 24 -40 71 0
-8 -63 68 70 0
-7 63 67 77 0
-1 -8 31 32 0
26 -47 -60 -66 0
14 -26 -43 -55 0
2 20 -76 -88 0
13 34 -35 80 0
-4 8 15 -24 0
8 -19 -65 83 0
-38 43 -56 73 0
12 31 41 -70 0
13 14 -39 -89 0
11 22 -56 -86 0
35 -46 47 -59 0
8 13 21 46 0
-4 -19 -44 -59 0
30 -38 -51 67 0
30 -68 70 -77 0
47 55 65 -77 0
-6 9 38 -73 0
26 -39 40 -73 0
5 32 33 53 0
-32 37 -50 53 0
-3 -13 71 77 0
-6 8 -35 -75 0
-8 -18 58 -68 0
-53 60 -62 -89 0
2 -17 -51 -83 0
15 21 -61 -73 0
18 -22 52 68 0
14 -22 -34 -48 0
-6 -31 57 87 0
-4 -7 13 -61 0
11 38 49 -67 0
-35 -72 76 78 0
-28 -30 86 -89 0
-4 54 -58 -62 0
5 59 -77 86 0
14 -44 -63 72 0
-13 -23 -40 51 0
-35 -46 -49 -79 0
-5 -16 -39 -62 0
-17 -36 -37 -44 0
40 45 62 -72 0
-20 -49 -62 -75 0
-9 -44 -46 62 0
38 42 -72 -77 0
13 -33 -55 64 0
14 32 -54 -64 0
30 -34 -59 -82 0
2 -45 68 87 0
14 -36 67 89 0
9 -35 69 -77 0
-39 60 -62 -67 0
-11 -24 -53 -64 0
-8 47 58 61 0
20 -32 54 -89 0
-18 29 46 -52 0
-14 16 19 46 0
27 39 53 55 0
-38 57 -65 -68 0
8 11 -19 59 0
-35 38 43 -68 0
