c description: Random 3-CNF over 180 variables and 756 clauses
c generator: CNFgen (0.9.5)
c copyright: (C) 2012-2026 Massimo Lauria <massimo.lauria@uniroma1.it>
c url: https://massimolauria.net/cnfgen
c
p cnf 180 756
-28 61 73 0
-58 -114 124 0
5 -27 108 0
-64 -94 -180 0
-17 -51 60 0
51 -100 -131 0
33 46 -166 0
42 -52 158 0
-23 -51 86 0
8 -66 -136 0
-73 105 -115 0
77 -80 -99 0
-90 135 177 0
29 -133 165 0
49 -51 -62 0
22 64 177 0
22 -45 -65 0
95 105 -139 0
54 -98 -169 0
-88 -122 169 0
-101 136 140 0
131 138 -139 0
16 147 153 0
-4 130 -155 0
60 167 177 0
9 67 -112 0
70 119 -126 0
-9 -77 79 0
-18 -147 -178 0
-2 -55 -129 0
55 -113 161 0
40 96 -148 0
49 -154 -155 0
-56 -86 -98 0
-58 -74 -164 0
-42 -131 132 0
-85 -126 -171 0
-22 68 135 0
-54 -115 -150 0
32 58 -128 0
127 140 -158 0
6 -38 -48 0
81 177 178 0
-32 49 -77 0
41 134 177 0
-1 -9 55 0
-50 60 -103 0
30 73 -119 0
65 114 124 0
-8 -84 -166 0
23 133 152 0
-24 -45 -129 0
-1 -109 120 0
-59 -69 179 0
-77 -105 143 0
-60 -65 -139 0
-16 -143 -178 0
5 13 148 0
-22 143 -170 0
68 -129 164 0
34 -98 109 0
17 -72 83 0
-20 28 113 0
53 63 72 0
101 142 -155 0
-32 115 135 0
10 165 -170 0
30 82 -122 0
-65 -129 141 0
44 -130 -180 0
-87 -135 173 0
-51 94 -174 0
-123 -135 138 0
33 38 127 0
-29 59 153 0
-90 -140 -152 0
-28 128 -133 0
-41 50 -85 0
-15 -81 141 0
102 129 -153 0
-39 131 -180 0
-26 -87 -132 0
-10 -82 142 0
71 -83 99 0
14 -95 -175 0
-137 138 -144 0
17 -105 -121 0
21 -45 161 0
69 -83 -94 0
18 65 -162 0
-27 -92 -145 0
73 -98 150 0
-28 65 -98 0
-61 -71 -118 0
36 -128 140 0
-46 112 -155 0
26 84 -85 0
-3 8 -67 0
51 -105 163 0
-44 137 -180 0
-85 -152 -153 0
18 30 70 0
-119 155 160 0
3 -7 95 0
44 56 -150 0
-19 -53 -151 0
142 178 -179 0
-105 -143 -169 0
-11 -72 161 0
-103 -157 -165 0
11 -66 -109 0
-26 54 -147 0
42 56 -64 0
43 56 72 0
-47 48 94 0
84 -130 -179 0
-18 32 -66 0
-25 118 162 0
6 -85 163 0
-11 -66 92 0
51 59 118 0
14 -24 51 0
-32 147 150 0
8 32 -157 0
26 -69 154 0
47 -74 -83 0
30 149 169 0
-89 -134 -176 0
-89 -129 163 0
100 -102 -151 0
-3 -9 -58 0
-85 147 175 0
70 123 -160 0
-59 -131 169 0
136 145 151 0
-100 105 -155 0
-4 35 63 0
-48 111 -171 0
-108 -155 -179 0
-99 -106 169 0
-64 -94 -166 0
-111 -168 178 0
72 -143 180 0
-39 59 -60 0
7 -14 -153 0
36 88 -123 0
-48 -139 -149 0
60 87 166 0
72 -115 -168 0
150 -151 165 0
-56 -107 113 0
-34 -63 113 0
-50 52 -154 0
75 -81 -141 0
6 -162 -178 0
89 -96 -97 0
31 -48 -87 0
19 -39 -161 0
-6 -11 -45 0
8 57 86 0
47 -73 153 0
54 -62 -106 0
45 86 163 0
25 27 -114 0
-9 60 125 0
4 27 179 0
19 142 154 0
-30 40 56 0
91 111 -139 0
73 -90 164 0
49 70 122 0
72 -74 174 0
5 13 53 0
-47 57 110 0
-89 127 -172 0
46 -90 -99 0
-30 96 -100 0
23 -154 -157 0
67 -153 -170 0
-39 61 -174 0
107 139 -151 0
36 -89 -96 0
-20 -58 168 0
-13 -83 -91 0
-67 177 -178 0
-21 -76 -136 0
-88 -118 120 0
-7 55 153 0
18 -29 -61 0
-5 -30 73 0
79 -85 167 0
-12 -20 124 0
-33 38 -158 0
130 134 173 0
-121 -152 175 0
135 149 162 0
31 -155 -164 0
-55 118 137 0
54 -75 -121 0
-35 104 170 0
-22 53 -157 0
-4 -148 162 0
-115 145 -154 0
-32 36 -179 0
-8 -9 -121 0
-12 13 88 0
2 120 -147 0
7 -63 -129 0
30 90 155 0
19 23 -123 0
-58 -102 156 0
25 150 -175 0
-110 138 -158 0
-12 -60 -142 0
46 -56 -60 0
4 -119 -176 0
-7 -22 85 0
-25 76 -148 0
-67 165 178 0
-96 -142 148 0
-51 -157 180 0
22 70 90 0
34 -43 63 0
32 -69 137 0
85 -107 169 0
-59 -69 -136 0
-32 35 124 0
33 -101 133 0
11 -93 -139 0
5 73 114 0
-36 -97 -170 0
28 155 168 0
-113 147 178 0
61 89 142 0
99 -136 147 0
58 -116 -159 0
-38 -125 157 0
33 -131 -142 0
-79 -101 -156 0
-128 -147 -161 0
-27 39 101 0
37 111 -177 0
35 -65 90 0
-77 -147 -167 0
50 109 -144 0
-6 47 -96 0
2 -4 -14 0
17 -120 -130 0
-63 115 164 0
1 9 25 0
1 66 98 0
91 -116 -133 0
51 95 -132 0
-24 -49 106 0
-17 -82 166 0
-16 75 -153 0
-63 86 113 0
68 82 -159 0
-10 48 86 0
56 83 -160 0
62 66 141 0
23 -105 -110 0
-48 -56 -102 0
72 -150 -173 0
49 147 -165 0
9 -18 -159 0
-13 -14 160 0
34 -117 135 0
136 148 -157 0
31 -48 87 0
1 -107 155 0
64 68 88 0
39 -80 -84 0
-55 -139 147 0
46 -83 -90 0
-73 -130 134 0
10 25 105 0
-34 -48 -115 0
3 66 170 0
-67 -116 167 0
-33 -80 115 0
-68 -103 172 0
-77 142 -164 0
56 117 137 0
17 24 -171 0
25 -62 -165 0
-108 -123 162 0
-137 140 144 0
-45 -65 -117 0
-58 151 176 0
54 -116 -148 0
28 -139 176 0
-7 43 124 0
5 20 131 0
17 34 -118 0
73 141 -178 0
-1 -65 -105 0
-50 -116 -134 0
-12 119 123 0
7 33 -78 0
-114 -137 158 0
40 -120 -129 0
87 139 -167 0
48 102 -174 0
-55 -59 -68 0
29 -101 127 0
-21 -33 137 0
2 -7 -123 0
-39 104 157 0
73 -107 -135 0
47 161 168 0
37 -71 160 0
65 -80 -96 0
48 72 -173 0
-60 -142 180 0
8 119 164 0
-123 159 -160 0
83 92 -148 0
-36 -59 -74 0
9 -45 170 0
66 -71 -92 0
64 -78 149 0
-8 -70 -138 0
55 77 -164 0
43 107 153 0
-22 -147 173 0
-90 -95 133 0
-45 -88 -168 0
-1 34 80 0
-16 52 -56 0
-15 -76 115 0
-6 -18 -35 0
101 128 134 0
6 8 -146 0
-93 100 -178 0
-34 -38 152 0
1 -68 -122 0
63 85 -162 0
47 67 -101 0
-73 93 -149 0
-70 -80 -117 0
-33 -103 -177 0
-35 -82 119 0
-92 -94 -119 0
76 99 105 0
70 -139 -166 0
-4 -21 -36 0
-24 71 -144 0
-131 162 -163 0
-10 31 -66 0
-58 59 145 0
-57 -70 92 0
58 65 -155 0
17 101 104 0
-1 -64 147 0
27 -102 144 0
-37 -97 -168 0
-35 -63 65 0
31 -101 -121 0
18 146 164 0
-32 110 161 0
2 126 -150 0
68 110 151 0
33 126 -177 0
10 73 -145 0
20 -51 117 0
-51 97 167 0
39 75 168 0
13 44 84 0
80 128 167 0
28 120 -153 0
-21 -27 -168 0
-47 -51 -101 0
-64 -77 119 0
139 142 -154 0
26 -27 44 0
15 78 -172 0
3 -139 149 0
-62 -86 -92 0
-43 160 -163 0
-18 79 -150 0
-4 63 -67 0
1 -13 160 0
73 -95 -119 0
82 -129 -158 0
95 123 148 0
-23 107 147 0
78 119 139 0
-70 153 -175 0
-32 78 177 0
121 -123 165 0
-55 105 145 0
-128 164 -167 0
-110 170 178 0
17 -105 154 0
-5 -38 -177 0
-105 120 -135 0
-1 -120 -170 0
-21 55 149 0
-37 -75 155 0
-54 67 -77 0
-2 -65 144 0
-54 101 176 0
97 -101 166 0
20 99 114 0
17 -73 -115 0
-54 -70 145 0
-49 93 -150 0
125 -169 173 0
-70 163 -172 0
94 -100 101 0
7 75 -102 0
68 79 144 0
46 125 -167 0
2 -35 153 0
-18 -40 -126 0
-81 -95 -168 0
35 102 169 0
27 -90 -147 0
61 -133 -154 0
19 89 119 0
-135 -173 -180 0
-22 -31 86 0
13 47 -118 0
-36 65 75 0
5 -58 103 0
64 -163 166 0
41 97 -117 0
3 25 -63 0
36 -119 -149 0
-89 -93 100 0
61 96 150 0
-21 -66 -171 0
-133 136 172 0
-89 122 -132 0
-9 114 -165 0
-29 -44 96 0
-98 112 171 0
106 -162 -171 0
15 -107 162 0
51 -77 87 0
13 -78 119 0
-5 18 133 0
-112 154 -169 0
86 120 -144 0
31 80 143 0
-51 133 155 0
-1 47 -165 0
34 -150 -177 0
-13 57 -94 0
-23 47 -82 0
-90 -116 -120 0
4 155 163 0
-41 47 108 0
91 -124 -128 0
-64 70 -117 0
-2 12 52 0
-5 -6 -48 0
-21 39 93 0
100 -147 179 0
5 86 158 0
33 78 159 0
60 -105 180 0
21 27 106 0
-45 -77 -95 0
-40 121 166 0
-14 -129 156 0
4 89 168 0
25 -134 162 0
61 -162 168 0
4 -133 -170 0
29 106 158 0
-15 -60 173 0
-43 -75 -92 0
35 -84 -111 0
11 -17 -96 0
-1 108 -152 0
-120 167 -177 0
45 -149 176 0
-19 45 -106 0
-56 -88 -98 0
-38 81 -147 0
-3 -102 -177 0
-3 58 168 0
9 138 156 0
-64 -128 151 0
-69 70 96 0
4 -72 -137 0
21 -124 -148 0
107 -144 174 0
-52 -60 152 0
-6 67 113 0
-40 -101 137 0
29 -47 88 0
75 109 154 0
-54 -57 110 0
-3 9 -91 0
3 52 58 0
-12 65 -124 0
-57 93 -111 0
-19 -75 -102 0
-69 -77 -164 0
62 -73 121 0
103 137 -147 0
19 -30 -107 0
-65 82 170 0
-57 108 152 0
-48 74 -179 0
-27 -50 121 0
9 89 136 0
-34 -48 -107 0
52 67 88 0
-6 -39 147 0
-46 78 -171 0
1 -56 105 0
-36 -89 173 0
-1 55 89 0
3 84 -169 0
-13 -29 107 0
3 34 -53 0
-46 116 -129 0
-95 -114 118 0
57 79 -96 0
-19 -42 143 0
16 33 163 0
-3 19 -105 0
-14 151 180 0
-17 -37 150 0
79 -96 -126 0
59 -67 -71 0
-20 22 63 0
119 -120 -149 0
-67 72 -117 0
17 -101 171 0
-66 124 -180 0
62 92 152 0
-5 61 -102 0
32 -126 141 0
75 82 -126 0
-32 81 -114 0
4 14 153 0
-4 -76 120 0
-81 126 -150 0
2 -115 -128 0
-127 165 -166 0
-98 116 166 0
-10 -112 159 0
-26 -39 178 0
-5 41 -60 0
37 -74 -157 0
-45 150 158 0
14 -143 -156 0
-27 -67 -141 0
95 -100 -137 0
-15 134 148 0
54 -63 -131 0
98 -138 147 0
14 44 -104 0
52 118 -175 0
5 76 -84 0
18 -67 145 0
3 -35 -126 0
-79 -165 178 0
-96 117 155 0
-49 -149 -177 0
-48 -64 -165 0
13 -72 -84 0
112 -149 -152 0
-73 95 136 0
56 95 -118 0
82 160 179 0
30 51 -177 0
94 103 144 0
39 59 -158 0
99 147 -160 0
-44 -100 146 0
-29 -143 -152 0
-92 -101 -161 0
-42 163 -165 0
-11 60 90 0
-88 -110 171 0
-17 107 109 0
81 -121 150 0
-14 70 -102 0
-37 -107 133 0
30 -68 -157 0
-47 -113 147 0
10 41 100 0
8 -56 109 0
-51 -147 166 0
-35 -113 -134 0
31 -41 108 0
-25 114 -117 0
-42 -77 -118 0
-4 134 -150 0
31 88 108 0
-21 -36 87 0
113 -121 -148 0
83 94 -171 0
-18 -25 69 0
-6 43 113 0
-48 -70 77 0
10 46 157 0
45 125 151 0
15 29 113 0
14 -104 158 0
-11 -57 -147 0
-59 109 -111 0
-1 -89 -115 0
-26 -143 -144 0
7 28 152 0
-72 114 -162 0
-44 46 -171 0
97 -107 -145 0
59 -74 -80 0
13 -75 -158 0
-42 -70 164 0
14 23 45 0
-18 20 -117 0
-1 -21 100 0
-53 -64 101 0
14 40 -139 0
-15 48 -175 0
-22 -74 -108 0
49 101 -145 0
-123 -164 -175 0
-12 -87 -174 0
109 116 124 0
10 141 -158 0
-76 85 -147 0
13 -91 -112 0
-3 -95 176 0
-36 -128 -168 0
44 -58 -82 0
-22 35 -137 0
-71 138 -180 0
9 -136 -147 0
8 64 -128 0
-16 18 -54 0
-10 -62 149 0
43 -107 -126 0
-39 59 158 0
56 -124 125 0
-23 73 150 0
-86 -92 155 0
163 -176 -180 0
15 -100 -143 0
41 60 176 0
85 132 133 0
-90 106 147 0
-48 -90 149 0
26 -86 -174 0
-11 91 170 0
-12 83 115 0
-69 101 118 0
-73 -140 152 0
1 31 -81 0
-96 106 -134 0
-98 136 162 0
55 97 -129 0
95 -135 -163 0
23 47 115 0
33 -74 -92 0
62 150 -151 0
15 -27 -61 0
14 26 37 0
20 171 -177 0
-2 9 149 0
15 -26 -68 0
1 -105 119 0
-58 -63 -98 0
-106 113 -157 0
58 151 -172 0
-38 -111 -165 0
29 -146 -168 0
71 83 160 0
55 88 150 0
-41 -71 -119 0
-49 52 155 0
-94 -110 140 0
-34 73 -167 0
6 91 154 0
26 55 -115 0
-20 77 177 0
-68 101 -134 0
134 -163 -171 0
-12 -48 109 0
-30 144 156 0
56 62 70 0
10 21 32 0
38 -56 82 0
-116 -162 -165 0
41 58 77 0
12 47 -71 0
-46 -47 81 0
22 -37 48 0
-23 32 114 0
-133 -145 166 0
-162 -173 179 0
-39 -52 -64 0
37 57 132 0
-106 -108 -145 0
18 49 -53 0
104 148 160 0
74 134 162 0
65 97 -112 0
53 -121 -134 0
21 -142 156 0
97 98 -166 0
-28 -89 -155 0
-28 36 177 0
118 -135 -164 0
13 -54 72 0
-97 106 149 0
10 86 178 0
-39 -40 61 0
1 33 -165 0
-10 27 141 0
95 -126 172 0
29 136 -175 0
59 104 168 0
-61 -73 -75 0
-47 98 -124 0
156 -157 -177 0
42 91 140 0
124 127 -158 0
16 -46 161 0
-58 142 -167 0
-22 63 -177 0
-84 93 -114 0
60 -80 -162 0
19 66 -113 0
-61 -64 108 0
-14 31 -54 0
-18 -81 -130 0
8 -45 -122 0
49 54 -90 0
3 -81 -161 0
13 69 -105 0
-106 -163 -175 0
138 146 151 0
34 -138 -139 0
-41 46 -56 0
-82 -159 165 0
-73 -76 176 0
-122 -139 -155 0
-42 120 -166 0
5 -25 -35 0
-49 143 174 0
-89 147 -149 0
13 97 -163 0
-87 -154 165 0
-65 -69 -101 0
-15 99 -103 0
42 142 168 0
3 64 161 0
