c description: Random 3-CNF over 155 variables and 465 clauses
c generator: CNFgen (0.9.5)
c copyright: (C) 2012-2026 Massimo Lauria <massimo.lauria@uniroma1.it>
c url: https://massimolauria.net/cnfgen
c
p cnf 155 465
4 34 139 0
-11 -31 150 0
53 107 149 0
-106 -126 -150 0
-20 63 -77 0
-49 -91 -127 0
88 -128 -153 0
-73 -77 -96 0
66 146 -151 0
-47 -93 138 0
-39 -85 -97 0
-15 38 100 0
-88 -101 123 0
1 40 102 0
62 66 -84 0
32 86 131 0
1 139 -153 0
-15 -47 -58 0
70 139 -151 0
-111 -129 -144 0
-47 113 151 0
45 -48 149 0
24 -55 152 0
-27 77 87 0
33 -84 119 0
9 -50 106 0
32 -84 86 0
16 -68 137 0
58 79 107 0
78 86 149 0
111 -115 -119 0
-4 -45 52 0
-31 -44 59 0
-29 99 -141 0
10 52 155 0
-44 -131 147 0
-62 70 122 0
81 -125 -140 0
-40 -74 83 0
41 74 86 0
-124 139 -147 0
-77 -122 -135 0
-4 101 -113 0
4 53 64 0
-48 140 -149 0
-59 88 117 0
-59 114 -124 0
92 103 -120 0
-100 -120 -144 0
5 -84 132 0
-12 -39 -146 0
-3 136 139 0
-17 -68 -81 0
34 -85 -109 0
-19 -46 -133 0
-67 -120 -125 0
12 -15 100 0
9 -88 130 0
-36 -58 89 0
-16 27 -41 0
8 13 19 0
-102 119 139 0
-24 29 124 0
1 -27 -109 0
29 54 -111 0
31 56 135 0
77 -108 -123 0
-7 54 95 0
3 83 -117 0
-3 9 -139 0
25 62 -77 0
96 -100 -135 0
-43 61 -87 0
-7 8 52 0
-29 -114 117 0
-26 35 -133 0
-47 -128 -145 0
-84 86 -108 0
-80 119 -123 0
54 -128 -135 0
24 59 139 0
-11 82 -88 0
-48 -54 -75 0
-86 112 141 0
48 -70 -77 0
-31 99 120 0
56 -67 -96 0
-54 89 119 0
105 -131 151 0
-32 -40 -99 0
-21 -95 127 0
10 -100 145 0
12 -126 139 0
-11 95 134 0
-2 47 -135 0
-104 -109 113 0
31 -89 155 0
43 -89 94 0
20 -36 -147 0
-16 38 54 0
-93 101 153 0
-41 -52 98 0
-70 76 -135 0
-37 -63 -75 0
-74 -122 144 0
134 -144 152 0
-21 -49 98 0
87 89 125 0
-72 -149 151 0
21 -103 -115 0
14 -27 -127 0
32 61 -134 0
42 -120 -132 0
-18 39 83 0
-1 -4 42 0
-21 -107 -140 0
42 89 152 0
-57 -82 -139 0
-1 -62 107 0
-22 121 144 0
7 49 146 0
-30 100 115 0
48 -128 130 0
-65 -74 128 0
-29 -32 105 0
11 -102 -132 0
-9 41 147 0
103 -116 -123 0
-4 -15 -21 0
-22 -47 -71 0
89 -92 144 0
-2 -16 105 0
-77 -113 -125 0
32 -39 129 0
50 65 -88 0
-8 -34 117 0
-14 97 -101 0
-22 -134 -144 0
29 -36 -128 0
-25 56 -93 0
48 61 87 0
22 -56 75 0
-33 95 -97 0
5 39 92 0
23 47 -51 0
-20 -47 -71 0
17 36 105 0
-23 119 -136 0
42 -50 -95 0
20 21 -141 0
-32 54 -120 0
-71 -114 145 0
31 -82 -101 0
7 61 -89 0
-98 109 -140 0
15 63 128 0
-53 -58 -133 0
-54 -58 -67 0
-107 126 -143 0
16 138 -155 0
-18 131 140 0
34 73 122 0
-75 -107 111 0
112 -127 -152 0
-21 -91 -120 0
57 -97 117 0
-68 -72 96 0
95 -101 139 0
-30 58 60 0
29 31 -56 0
38 -48 -101 0
71 -94 -96 0
9 -111 143 0
35 48 66 0
-7 27 150 0
-31 -34 49 0
22 -93 103 0
-11 -61 -89 0
-4 -49 113 0
27 40 54 0
-77 143 148 0
-14 -47 -66 0
-15 -122 -140 0
17 45 -85 0
71 130 -149 0
4 18 -154 0
-66 69 -83 0
8 48 95 0
83 -101 -154 0
-56 -130 -136 0
-80 -111 134 0
-121 138 -146 0
-10 -36 -92 0
13 15 54 0
10 62 124 0
34 41 -54 0
-5 -83 103 0
-22 -86 109 0
-100 -116 139 0
12 -38 104 0
21 -127 147 0
-44 -65 -137 0
115 132 145 0
-9 -24 32 0
-63 121 -139 0
59 66 -115 0
59 65 70 0
-56 -66 103 0
-59 -118 137 0
132 -133 -149 0
55 60 -134 0
47 -115 155 0
4 -24 100 0
25 -45 -102 0
41 -52 -138 0
52 53 -130 0
15 27 -29 0
24 -32 -78 0
-23 95 -150 0
9 67 129 0
-87 118 139 0
96 101 -109 0
9 130 -147 0
-27 -43 -51 0
-86 125 -133 0
-1 101 155 0
-24 84 102 0
-24 122 -125 0
-8 35 -115 0
14 -111 -132 0
-15 128 -129 0
-22 -42 -140 0
-57 93 96 0
-86 149 150 0
-20 -27 -90 0
64 75 -136 0
18 -146 -148 0
100 -101 130 0
18 50 75 0
125 -145 -155 0
-72 -98 -110 0
-33 140 154 0
39 53 98 0
59 -102 -148 0
-36 61 64 0
75 -78 143 0
6 26 -50 0
-14 -38 139 0
-43 -47 -115 0
48 -104 -116 0
-34 -63 83 0
-99 -137 -139 0
-38 -41 -135 0
59 98 -125 0
-112 -134 137 0
-111 -134 147 0
54 75 153 0
99 -135 146 0
23 96 -104 0
-51 116 -148 0
4 -69 107 0
-24 67 -126 0
-76 90 103 0
-31 94 -123 0
-15 -133 -139 0
49 120 149 0
-10 21 -29 0
-12 -20 36 0
16 146 -152 0
43 -69 -140 0
-8 -9 -142 0
39 85 -149 0
47 -132 134 0
-43 45 123 0
-10 42 124 0
52 87 92 0
-6 20 -138 0
-20 -35 -88 0
74 -112 154 0
39 -91 117 0
-73 -109 -139 0
-63 -129 142 0
-36 80 -94 0
-67 -127 133 0
29 73 132 0
15 60 -149 0
22 -62 -70 0
33 38 120 0
6 33 -117 0
-10 -21 48 0
37 101 -122 0
27 91 130 0
-5 100 137 0
7 25 -85 0
-10 -15 105 0
-20 36 76 0
17 -53 118 0
-12 -62 -110 0
42 -87 123 0
28 42 -99 0
-22 32 117 0
7 -84 143 0
135 141 -147 0
52 145 -146 0
10 49 -111 0
-60 -89 99 0
-32 66 -154 0
-61 69 123 0
13 71 86 0
55 141 -143 0
-65 -142 146 0
-73 81 -106 0
4 -119 123 0
-73 112 154 0
29 -42 -81 0
-9 -13 -35 0
83 109 -139 0
36 46 134 0
40 75 128 0
42 -51 -131 0
-36 -42 -69 0
-28 -119 -125 0
-11 -30 152 0
-54 -55 142 0
20 32 154 0
-29 93 -101 0
3 125 136 0
4 -58 136 0
35 -72 80 0
-3 -74 123 0
-48 -103 -117 0
4 -8 -97 0
-3 56 91 0
-11 -98 113 0
2 -74 -147 0
59 -75 -76 0
5 -60 -80 0
86 -110 147 0
-85 -86 -134 0
-9 -76 -145 0
-77 126 -138 0
-8 31 -32 0
8 61 79 0
-71 -85 113 0
-32 71 94 0
116 118 -142 0
61 68 69 0
30 -74 122 0
20 -28 -82 0
-7 24 -136 0
-31 44 -58 0
-79 -91 109 0
40 108 138 0
-18 58 -69 0
-29 55 96 0
-8 -121 -133 0
-83 104 154 0
35 -48 -149 0
-14 -97 132 0
84 -128 153 0
39 81 -134 0
-46 -112 -127 0
-21 98 -144 0
83 -94 124 0
-23 98 131 0
35 -71 151 0
20 71 -103 0
-3 32 74 0
-4 -15 -24 0
-81 87 -117 0
66 101 -154 0
-89 92 -126 0
-9 -109 -121 0
6 -39 -105 0
-22 -57 -67 0
107 110 142 0
-3 103 -147 0
2 -5 -122 0
48 50 141 0
-59 77 125 0
40 41 79 0
-12 -110 -113 0
12 -25 -44 0
6 -10 11 0
-17 33 -78 0
-45 -84 129 0
-2 12 -40 0
54 58 -85 0
-25 -80 -83 0
-5 -89 108 0
-20 -28 143 0
3 8 -15 0
51 -141 154 0
-13 -43 -109 0
-33 -60 -121 0
-100 -138 -143 0
84 -100 110 0
-26 53 -145 0
-110 122 -152 0
27 61 130 0
-48 94 -134 0
-54 91 -94 0
-35 -61 81 0
17 60 121 0
-46 60 79 0
-26 64 96 0
-24 -36 -72 0
1 21 -74 0
2 4 -128 0
-12 28 -96 0
-142 149 154 0
20 101 -117 0
-13 -82 -107 0
-84 85 115 0
115 -120 152 0
4 -52 97 0
32 -44 124 0
56 -89 -129 0
-7 -61 -65 0
37 -129 -135 0
117 -120 133 0
-15 21 -59 0
-81 93 134 0
20 83 -126 0
-19 -21 -100 0
-11 28 -51 0
7 18 -110 0
-5 -51 -147 0
35 -115 -154 0
62 -67 106 0
9 37 50 0
-20 21 -57 0
-70 -126 -140 0
1 84 123 0
23 -102 -149 0
-104 -123 -142 0
20 107 -114 0
-6 -97 151 0
74 -78 -81 0
79 116 121 0
-6 30 -151 0
-28 -47 -103 0
5 40 -86 0
3 38 81 0
-40 104 -111 0
60 80 105 0
-12 -49 -77 0
-37 96 154 0
85 -90 -105 0
35 107 -111 0
7 26 -67 0
27 -29 85 0
44 -60 68 0
6 -51 -64 0
5 6 89 0
53 84 -121 0
51 84 113 0
-10 -61 -86 0
-7 61 103 0
72 84 -105 0
16 90 -124 0
-6 106 143 0
-120 128 -145 0
4 82 -133 0
-7 -118 130 0
