c description: Random 3-CNF over 300 variables and 900 clauses
c generator: CNFgen (0.9.5)
c copyright: (C) 2012-2026 Massimo Lauria <massimo.lauria@uniroma1.it>
c url: https://massimolauria.net/cnfgen
c
p cnf 300 900
62 108 299 0
-47 248 -266 0
17 67 254 0
-155 219 297 0
-58 131 -192 0
-88 -154 240 0
-59 -134 -291 0
-181 207 280 0
-51 -94 224 0
10 -38 -69 0
-28 -187 267 0
-38 -48 -87 0
59 -114 124 0
81 219 -234 0
69 -131 -297 0
124 135 226 0
-33 84 113 0
-146 -257 263 0
-69 -104 -159 0
-51 262 267 0
19 -35 198 0
85 169 -264 0
-95 -141 172 0
47 98 -152 0
41 131 -133 0
-58 63 -179 0
9 60 156 0
-98 181 192 0
73 131 -139 0
-30 -111 134 0
105 -106 239 0
91 112 240 0
17 -62 180 0
100 -207 287 0
-122 156 268 0
64 -241 -256 0
-42 58 131 0
156 214 262 0
-121 157 158 0
-127 -135 -213 0
-1 -203 221 0
122 129 232 0
-48 -108 172 0
-72 85 -206 0
26 -81 -132 0
-3 228 -259 0
15 155 216 0
74 -137 256 0
-45 49 126 0
33 79 121 0
-83 -123 199 0
59 -155 -248 0
10 -44 -66 0
-64 -88 292 0
162 -221 268 0
18 -205 277 0
-111 252 -299 0
52 110 -132 0
-68 121 210 0
-12 16 -27 0
-110 154 232 0
-67 69 116 0
-20 215 287 0
-25 242 -249 0
87 -218 -261 0
-200 -276 -280 0
140 170 -184 0
52 199 231 0
87 -130 196 0
115 202 -245 0
-2 176 211 0
-20 102 248 0
110 178 -294 0
-44 102 -143 0
200 -218 -255 0
117 196 225 0
116 -231 -253 0
-61 -159 -284 0
180 -223 -251 0
-104 144 -280 0
138 -202 268 0
65 144 149 0
-37 -262 -297 0
-114 -227 279 0
-26 172 -292 0
200 207 212 0
21 -132 -272 0
5 97 126 0
-98 113 -163 0
-109 135 -231 0
57 238 -239 0
91 143 186 0
86 -87 -190 0
17 -58 118 0
77 -131 -295 0
-13 279 -289 0
93 -101 -162 0
3 -190 281 0
-116 -156 -181 0
-172 191 -248 0
-169 231 -280 0
14 -105 -173 0
-42 -96 -217 0
-61 88 -190 0
48 -106 281 0
-81 -96 161 0
-53 207 -284 0
107 299 -300 0
-31 -101 252 0
12 -56 -82 0
84 -100 -268 0
59 -193 238 0
-170 -197 -246 0
-219 -226 -297 0
-90 243 -287 0
-76 -198 -208 0
9 209 279 0
-41 -208 -260 0
80 119 -282 0
85 112 -283 0
13 29 198 0
-97 140 -264 0
37 -70 -189 0
3 -118 -175 0
-17 -109 -156 0
3 176 -185 0
-103 -196 -244 0
-53 165 234 0
-10 -165 232 0
-17 -164 -245 0
20 -34 -262 0
26 -79 94 0
-115 -180 193 0
-47 143 160 0
13 -187 201 0
6 -40 -244 0
125 153 223 0
21 35 -143 0
115 -146 -173 0
121 138 237 0
35 -182 -250 0
22 58 269 0
-74 249 258 0
-61 -128 137 0
-186 204 299 0
101 167 -261 0
-92 123 -255 0
-151 172 217 0
246 -270 296 0
93 129 180 0
119 191 -261 0
79 -107 183 0
-68 -169 280 0
124 159 236 0
38 -175 -289 0
47 -163 -279 0
-66 122 290 0
100 -144 295 0
4 -89 -165 0
-23 173 -288 0
18 95 278 0
-126 -129 180 0
17 -67 -229 0
55 63 74 0
-35 -219 230 0
159 188 -277 0
103 -187 219 0
163 -174 221 0
-48 206 224 0
173 176 -281 0
-18 -108 -227 0
32 218 289 0
14 75 -86 0
6 111 112 0
116 250 255 0
163 181 257 0
-85 -144 260 0
-113 -122 155 0
15 55 220 0
13 133 -300 0
-14 -178 -193 0
216 -232 250 0
-98 119 -189 0
-56 127 -213 0
103 -131 217 0
134 230 247 0
40 211 -286 0
116 131 293 0
-148 -160 -204 0
55 72 119 0
14 -37 288 0
33 -66 -96 0
-15 -224 -277 0
44 62 271 0
-38 -143 -178 0
13 -116 277 0
49 173 -209 0
-48 76 -276 0
-40 84 135 0
-57 -209 231 0
38 205 213 0
-179 185 -207 0
2 -96 -222 0
-70 85 204 0
-6 -115 263 0
98 187 -214 0
33 -143 213 0
-73 -167 281 0
162 -181 -237 0
130 -135 -140 0
23 -62 -220 0
27 -76 -83 0
-108 205 -256 0
20 -77 159 0
2 124 146 0
-64 -143 229 0
41 217 -288 0
60 85 -195 0
-133 195 -206 0
-58 85 152 0
-29 -30 238 0
61 149 194 0
25 236 257 0
-31 -104 191 0
43 -75 116 0
29 133 148 0
-28 -220 297 0
121 -131 -197 0
47 154 -176 0
27 30 -201 0
49 138 -273 0
-9 11 -273 0
-53 160 271 0
1 -156 -184 0
-4 -295 296 0
-74 -155 282 0
121 -129 134 0
-75 220 -234 0
16 178 293 0
96 -102 221 0
82 -88 -273 0
-46 -107 -205 0
128 -165 -260 0
-80 244 -291 0
-46 62 -156 0
24 227 265 0
33 -153 239 0
109 241 -285 0
94 -173 300 0
58 81 -105 0
16 -181 248 0
-69 124 143 0
-18 249 -251 0
-115 -223 -280 0
-167 185 -275 0
-138 206 -253 0
148 -185 -289 0
-119 158 269 0
-55 78 -178 0
34 82 96 0
39 -86 -172 0
11 71 82 0
2 102 -249 0
9 -266 -294 0
92 250 290 0
5 93 -230 0
2 137 -145 0
83 245 -264 0
-28 219 278 0
-95 130 259 0
138 -158 183 0
9 138 182 0
-13 55 210 0
81 151 -167 0
-87 -133 -236 0
112 -141 181 0
30 32 216 0
133 178 -275 0
-120 215 -291 0
33 -195 235 0
19 -166 -187 0
-187 218 265 0
-21 -38 -138 0
-139 -209 -298 0
117 -144 -157 0
-176 -183 -239 0
-75 187 270 0
97 200 217 0
37 175 188 0
125 187 270 0
130 153 -263 0
-28 -99 289 0
35 -241 262 0
-89 284 296 0
114 175 -236 0
-143 170 204 0
27 265 -287 0
-26 111 138 0
34 88 183 0
146 178 266 0
23 52 275 0
39 54 -194 0
-112 -150 254 0
-96 108 -184 0
-187 222 -265 0
-98 -129 283 0
-103 -192 196 0
72 -135 -141 0
-150 237 257 0
26 34 -290 0
102 -193 230 0
108 202 299 0
7 -112 154 0
-75 -120 -229 0
-32 147 -268 0
9 -21 -42 0
1 232 -290 0
27 90 -95 0
191 -210 224 0
49 66 136 0
95 -230 298 0
48 -91 235 0
-113 -119 -147 0
21 218 227 0
-146 171 -174 0
-107 195 -233 0
136 180 -300 0
-7 -56 274 0
102 -144 235 0
-4 -185 -227 0
-30 -100 -145 0
34 63 199 0
1 -45 269 0
-5 43 -64 0
-17 56 194 0
167 -229 276 0
-123 -167 -210 0
59 66 251 0
-38 -165 286 0
210 -219 -224 0
22 47 -137 0
7 105 -277 0
29 260 -282 0
-1 18 -269 0
53 76 253 0
-64 -98 -201 0
86 98 -172 0
-2 -75 -284 0
-69 227 288 0
-65 -150 -248 0
70 -250 281 0
145 -244 297 0
27 -67 123 0
-103 192 288 0
-15 -60 73 0
-55 -117 -283 0
82 129 218 0
-27 48 150 0
49 69 144 0
133 -210 232 0
55 164 277 0
64 -138 267 0
-204 -233 281 0
-124 -132 -196 0
-200 248 -290 0
-84 -109 220 0
120 135 158 0
87 -176 -232 0
185 -256 261 0
73 -83 199 0
-190 -211 293 0
130 184 -201 0
59 113 245 0
-168 -250 254 0
2 105 262 0
-20 187 -223 0
49 -203 223 0
145 -285 295 0
-14 47 -167 0
-64 -186 292 0
91 -96 120 0
49 -76 -278 0
34 -192 -285 0
-57 -62 174 0
65 -128 -179 0
-42 82 260 0
60 -146 -183 0
-28 -86 123 0
4 -38 -127 0
-115 -140 -219 0
-139 -157 165 0
-54 78 256 0
-10 -37 -179 0
-107 -206 -271 0
40 212 -254 0
22 62 -255 0
-66 -168 236 0
-66 -113 165 0
74 -109 -182 0
7 12 64 0
-78 217 234 0
-65 156 -286 0
12 -183 -262 0
27 -200 -257 0
-130 224 -225 0
92 213 -231 0
142 -151 -253 0
27 -115 -280 0
4 -83 193 0
50 117 161 0
-151 193 -207 0
-37 96 -234 0
-51 -291 -295 0
-66 -286 299 0
48 157 -224 0
125 217 -258 0
-36 154 -225 0
-2 104 170 0
1 123 170 0
93 155 -232 0
-34 50 126 0
-64 200 245 0
218 242 -243 0
45 92 -96 0
-17 -18 42 0
-73 -144 211 0
67 -168 187 0
74 184 227 0
-69 185 -243 0
77 78 147 0
-116 -211 258 0
27 -89 -209 0
59 -178 193 0
62 179 278 0
171 199 -292 0
84 -101 -281 0
-17 247 -294 0
-23 55 176 0
-237 -270 -276 0
-153 -231 256 0
144 -148 -223 0
28 212 255 0
-229 240 278 0
-8 243 298 0
138 -212 -299 0
-171 -208 -209 0
-96 -146 -190 0
97 257 266 0
-13 -135 -245 0
-17 123 -129 0
24 -102 224 0
-212 -244 -273 0
36 -158 170 0
-19 -137 195 0
-32 -185 -256 0
-9 271 282 0
3 78 -201 0
89 104 -293 0
125 168 280 0
97 104 186 0
-92 -136 -181 0
-8 -77 -288 0
-51 -99 263 0
164 276 300 0
-116 -204 -233 0
32 -133 171 0
2 -204 -297 0
105 235 -260 0
-33 -169 -293 0
-83 183 234 0
53 -100 -101 0
-20 41 49 0
-1 -90 -123 0
-20 -58 70 0
106 -112 172 0
-2 284 -285 0
-110 200 237 0
-119 222 225 0
-25 125 261 0
88 155 -221 0
63 134 -175 0
14 -78 142 0
-62 123 253 0
71 189 221 0
24 -28 34 0
55 -192 -207 0
171 203 -251 0
7 69 -100 0
-191 -289 290 0
8 95 212 0
-85 201 241 0
76 124 -157 0
29 228 287 0
146 184 243 0
51 108 249 0
168 -182 -273 0
-22 -38 -267 0
6 -17 91 0
-78 -122 -205 0
-11 154 286 0
7 -237 -295 0
2 94 97 0
12 -14 -32 0
-85 -107 268 0
-63 -87 -173 0
-179 -184 -187 0
7 -93 -290 0
30 -35 -152 0
21 -55 -205 0
57 111 194 0
252 -261 -273 0
-78 -154 213 0
-61 171 -273 0
91 173 248 0
13 -135 207 0
-197 -214 277 0
107 -244 -297 0
57 67 183 0
82 -200 -218 0
-156 196 270 0
13 102 280 0
247 272 295 0
-59 110 121 0
93 -195 227 0
47 209 294 0
-45 -190 -230 0
-58 -180 223 0
-172 -203 -299 0
-177 -284 296 0
-101 -242 280 0
91 -224 285 0
-149 -257 283 0
-173 186 -239 0
-47 217 243 0
-155 -231 256 0
44 185 -196 0
-63 -109 -112 0
25 -51 221 0
53 -152 269 0
-13 -47 108 0
63 148 -185 0
-28 -50 129 0
8 -32 83 0
45 -156 -264 0
-62 90 163 0
-87 -98 -162 0
30 36 212 0
144 161 262 0
20 96 121 0
-8 120 294 0
-15 270 283 0
188 193 289 0
18 -45 126 0
125 211 215 0
225 -238 -240 0
-81 -150 -271 0
231 255 -299 0
-45 123 -263 0
-28 -225 257 0
-37 -47 -297 0
12 40 212 0
168 218 267 0
171 -210 294 0
-7 129 -161 0
-96 105 143 0
3 -121 -245 0
18 -40 49 0
56 -90 -164 0
98 -144 187 0
54 189 -208 0
108 160 -186 0
6 162 -220 0
14 -58 81 0
94 103 -230 0
50 240 262 0
200 -210 -287 0
-94 -119 289 0
36 142 295 0
-148 220 -276 0
109 269 273 0
32 -84 -121 0
-21 -150 285 0
26 -85 -268 0
4 142 -186 0
-62 -118 223 0
63 -141 226 0
47 -167 -201 0
-157 -168 249 0
-81 125 -281 0
20 29 -250 0
-175 -243 -254 0
-54 68 144 0
113 -127 285 0
78 -221 -222 0
9 -99 184 0
73 84 -289 0
45 61 -194 0
-90 -115 -280 0
61 131 -185 0
15 60 265 0
-62 176 281 0
-38 172 -227 0
107 -113 -285 0
-33 111 146 0
97 128 209 0
-113 -246 -284 0
20 -196 300 0
133 245 -286 0
-25 64 -185 0
-14 211 -244 0
-22 140 -291 0
117 240 -297 0
107 -255 -279 0
97 -142 -297 0
112 116 184 0
-14 -139 259 0
-249 -286 -298 0
65 -111 -121 0
-8 -187 -287 0
39 65 -179 0
65 120 -272 0
47 244 -259 0
59 100 195 0
132 156 274 0
-105 -153 -207 0
129 -265 273 0
-82 119 -195 0
58 64 135 0
-106 156 210 0
-153 243 262 0
-51 178 291 0
18 -56 210 0
53 97 -218 0
-10 -31 -178 0
169 -243 280 0
-34 82 -156 0
7 76 -103 0
83 155 160 0
-13 59 -205 0
-81 -191 300 0
-6 -158 -263 0
-31 -158 -251 0
-8 52 174 0
-208 218 260 0
-20 -119 242 0
18 156 180 0
-111 -162 -186 0
-24 44 -174 0
-65 183 245 0
94 167 -285 0
-67 -215 -264 0
80 106 194 0
235 236 -250 0
-141 -168 -298 0
-57 215 292 0
-81 153 204 0
23 202 237 0
43 -52 67 0
27 75 -130 0
54 121 -235 0
-94 140 -160 0
26 -172 287 0
-195 -235 -260 0
-118 -154 -215 0
-133 140 167 0
37 184 -227 0
132 -154 -246 0
83 -86 169 0
-22 111 202 0
-201 225 260 0
18 171 -216 0
-32 68 -163 0
99 -219 228 0
16 95 219 0
-7 -114 232 0
-195 257 -263 0
-12 29 197 0
5 -127 -205 0
81 -206 241 0
-72 229 -234 0
2 99 -193 0
37 -75 -88 0
-103 131 204 0
-14 -46 179 0
-59 229 236 0
122 -158 242 0
71 82 196 0
129 -141 155 0
44 -249 -273 0
189 -231 -272 0
-78 190 278 0
178 -212 -247 0
97 -158 299 0
26 -92 133 0
43 112 163 0
30 -94 299 0
-212 215 216 0
21 -215 -235 0
67 86 -280 0
-199 203 -291 0
-22 77 -240 0
-12 148 -258 0
-31 237 255 0
-159 -188 238 0
16 104 -239 0
-46 156 -165 0
21 54 -282 0
11 183 -230 0
14 201 -255 0
135 238 272 0
-55 98 -100 0
188 -209 -242 0
-56 106 -259 0
-206 -225 254 0
-97 -173 -251 0
-54 -248 -282 0
-55 226 275 0
-48 -59 123 0
-39 178 223 0
22 45 215 0
-14 63 258 0
-27 -112 260 0
-2 250 254 0
-35 87 -257 0
-62 70 -75 0
-111 -120 -275 0
145 210 -299 0
70 107 -215 0
-11 -222 223 0
93 -131 -284 0
31 -100 -194 0
-21 26 -153 0
256 261 -277 0
189 207 229 0
4 169 -279 0
23 206 233 0
148 229 -299 0
119 -178 -231 0
30 -75 -139 0
68 162 169 0
49 -229 -271 0
-8 45 57 0
-26 66 -270 0
32 -75 260 0
20 -63 231 0
31 -39 215 0
-67 -245 -283 0
3 53 -277 0
38 180 -227 0
-5 94 97 0
12 -29 -59 0
100 -202 293 0
33 185 -232 0
20 -129 259 0
-30 67 -121 0
54 213 288 0
-23 -73 -112 0
25 231 290 0
-140 223 -240 0
-68 -79 265 0
21 -169 249 0
-112 -240 -256 0
-170 -201 -222 0
-84 -167 -196 0
-104 107 -182 0
-165 184 -269 0
-91 -203 -267 0
25 -69 -166 0
132 257 -290 0
81 -94 246 0
103 182 -233 0
65 84 -263 0
-134 160 -252 0
-94 114 241 0
11 -145 228 0
44 115 -242 0
59 -213 -228 0
-130 -165 192 0
20 -104 218 0
57 165 -278 0
24 203 231 0
8 -13 240 0
144 210 -211 0
63 190 -206 0
159 163 230 0
15 -249 250 0
-140 181 184 0
125 238 244 0
29 -149 -237 0
-206 243 -284 0
44 76 -213 0
12 111 -298 0
-17 32 230 0
79 -142 -195 0
-124 135 146 0
-39 -71 -140 0
-10 -38 279 0
4 142 -211 0
-100 170 216 0
-117 -177 266 0
-194 263 -281 0
-10 151 -230 0
59 142 202 0
-100 141 -213 0
66 81 174 0
-156 192 -256 0
-74 138 240 0
-24 -28 164 0
-81 -242 271 0
72 -148 -238 0
-92 160 -258 0
-37 -207 266 0
-24 -51 -194 0
142 -149 -232 0
-97 -262 290 0
-151 167 255 0
-180 -247 -259 0
-96 125 -247 0
-108 115 -208 0
-78 -277 -280 0
-17 116 -172 0
-146 -158 191 0
49 -209 -242 0
100 108 281 0
34 -74 221 0
109 142 -209 0
49 -159 274 0
-166 -271 -299 0
17 -265 -299 0
-89 217 250 0
-60 81 -235 0
-91 -108 288 0
10 32 266 0
-152 153 244 0
6 -35 -262 0
95 -289 -299 0
-145 285 290 0
-82 -192 -206 0
-52 264 -280 0
18 -162 217 0
-110 -119 156 0
154 187 -288 0
168 181 -260 0
29 -232 -263 0
108 111 -234 0
131 160 -224 0
17 39 -218 0
58 -65 217 0
5 -98 -234 0
-1 239 250 0
57 102 119 0
72 121 200 0
-22 -81 -156 0
37 -96 259 0
-21 -157 -160 0
-145 146 200 0
45 -139 183 0
-31 -155 298 0
41 190 195 0
-85 240 -284 0
-47 86 -294 0
-183 228 -238 0
40 -164 -193 0
-35 -74 90 0
1 219 269 0
50 80 -275 0
45 247 -260 0
32 73 -196 0
9 192 -255 0
13 218 249 0
-81 -125 -290 0
221 286 289 0
11 -14 196 0
24 -27 -175 0
-99 155 -268 0
-89 -219 -292 0
-73 -97 -278 0
-89 -101 189 0
-7 13 -169 0
61 111 263 0
19 66 175 0
-113 -130 181 0
82 97 164 0
34 -82 -194 0
130 153 -195 0
14 79 156 0
78 -97 -106 0
8 -50 265 0
-32 263 -283 0
-123 181 -274 0
-65 233 -234 0
2 -180 -236 0
92 268 -279 0
102 183 273 0
36 240 -266 0
5 -207 -259 0
68 134 -234 0
-199 -232 -300 0
-49 -84 -117 0
169 -190 -205 0
