c description: Random 3-CNF over 200 variables and 600 clauses
c generator: CNFgen (0.9.5)
c copyright: (C) 2012-2026 Massimo Lauria <massimo.lauria@uniroma1.it>
c url: https://massimolauria.net/cnfgen
c
p cnf 200 600
-8 86 128 0
52 66 -137 0
-11 -83 158 0
-2 -9 -141 0
17 86 195 0
22 158 -196 0
138 -151 -158 0
36 52 136 0
-28 -46 -53 0
-60 129 -156 0
69 144 -146 0
80 -149 181 0
44 88 112 0
-135 150 159 0
-3 104 -176 0
-48 89 -102 0
-8 96 -186 0
116 137 -153 0
7 8 -180 0
-51 140 -144 0
-2 145 147 0
9 -51 -120 0
126 152 178 0
-79 84 -128 0
-70 127 -182 0
1 63 172 0
-35 -57 183 0
-44 129 -177 0
-11 48 188 0
20 98 186 0
-98 152 -175 0
-29 146 172 0
9 39 40 0
5 14 153 0
-5 94 -119 0
105 157 195 0
18 -30 -167 0
138 171 -187 0
47 -170 -175 0
22 -69 154 0
70 150 200 0
61 95 -144 0
50 173 185 0
27 -43 134 0
-26 157 193 0
-75 -159 -164 0
10 -40 -105 0
8 148 198 0
39 -62 114 0
-11 127 175 0
27 -44 56 0
34 50 72 0
-125 -174 -198 0
145 146 149 0
96 -106 173 0
126 -139 -178 0
-25 73 -108 0
23 -58 66 0
51 52 120 0
63 -86 -91 0
9 37 -199 0
-98 -192 193 0
20 -24 -134 0
64 155 -172 0
27 -34 82 0
4 86 -88 0
-50 51 -198 0
-28 -75 99 0
59 79 177 0
-117 128 172 0
104 -105 177 0
40 58 -147 0
10 -41 182 0
-29 79 -155 0
-133 -181 194 0
23 -123 148 0
-27 -49 167 0
-18 45 49 0
51 -103 -111 0
16 196 -199 0
-116 153 -155 0
-31 -35 140 0
-19 -35 -96 0
-64 145 148 0
-4 106 187 0
-3 -15 -31 0
154 163 165 0
-50 -140 -157 0
-68 81 -194 0
23 27 150 0
23 -44 -122 0
58 -149 177 0
67 -73 125 0
33 -101 187 0
-53 -112 165 0
114 -130 155 0
12 22 190 0
-122 192 -200 0
30 73 172 0
52 67 -96 0
63 127 -128 0
-53 75 88 0
176 -181 -194 0
-13 50 147 0
100 -133 140 0
-19 -35 -190 0
-9 22 -131 0
-21 -23 -48 0
-93 132 162 0
72 -77 -125 0
112 -140 187 0
-13 14 -172 0
25 -93 138 0
-108 -122 -146 0
37 -144 159 0
95 159 180 0
2 -8 -173 0
8 121 -187 0
-19 25 -93 0
23 -142 -184 0
-22 117 123 0
100 104 172 0
-127 136 174 0
-49 -76 -79 0
-15 -36 90 0
42 59 155 0
-62 119 -184 0
48 -122 -166 0
-73 109 -129 0
-19 -21 -189 0
125 -173 175 0
12 142 -200 0
-59 85 198 0
-109 -123 151 0
94 -124 160 0
11 81 -94 0
104 115 183 0
101 107 149 0
9 -28 -192 0
24 100 126 0
-15 54 -147 0
26 131 135 0
52 79 -189 0
1 -28 86 0
-69 -123 -197 0
-131 -146 -200 0
27 70 -155 0
-23 -31 -96 0
-45 142 -161 0
32 184 186 0
-41 43 -120 0
-22 30 -145 0
-21 -106 127 0
-60 79 196 0
-24 104 -153 0
-103 -140 160 0
73 -106 -139 0
-66 190 200 0
-19 57 135 0
-86 -96 121 0
28 -65 -120 0
9 -64 113 0
-81 -126 -134 0
13 194 -200 0
-45 82 136 0
22 50 78 0
-150 -165 -170 0
-32 -117 -135 0
1 -51 67 0
6 -58 -170 0
2 -42 67 0
-13 92 -165 0
-4 72 -98 0
-1 -67 89 0
-41 133 194 0
33 -66 -88 0
36 80 178 0
55 -135 137 0
-82 106 183 0
-47 -80 -98 0
-105 -141 -154 0
74 -91 -106 0
-63 -96 -123 0
-19 -45 -158 0
-73 97 -123 0
50 -84 138 0
5 -27 196 0
-70 77 -185 0
-89 -129 -163 0
100 -102 125 0
76 -124 -174 0
7 -52 145 0
-34 -39 -125 0
-72 -113 -189 0
41 -169 -197 0
-3 58 -189 0
52 -155 167 0
84 -186 200 0
41 -75 161 0
15 28 65 0
29 116 -119 0
-1 -82 120 0
113 -114 118 0
-26 145 199 0
-78 -120 -178 0
26 -37 189 0
-78 -81 138 0
9 -52 90 0
-66 126 131 0
62 106 120 0
-77 -181 -198 0
-24 -45 -116 0
-51 56 118 0
65 100 197 0
39 65 -134 0
12 -90 155 0
-1 -87 -119 0
-13 -46 -167 0
12 -48 -125 0
25 74 76 0
142 184 -185 0
-3 94 171 0
-11 84 -96 0
-13 -26 67 0
-62 92 169 0
-20 29 -71 0
-5 112 -196 0
-44 -107 189 0
-124 138 -164 0
-12 -34 -175 0
-103 151 197 0
50 -74 -183 0
44 -75 125 0
-81 -155 -166 0
42 113 -174 0
-132 -140 -163 0
-114 116 156 0
-128 132 162 0
64 80 91 0
-45 100 133 0
-8 123 180 0
7 95 -116 0
71 134 176 0
-18 -102 193 0
39 -43 -110 0
58 59 178 0
78 -85 -148 0
14 -27 -131 0
41 -106 117 0
53 70 -116 0
-54 81 -108 0
-46 -58 112 0
-14 88 -134 0
-45 157 -160 0
23 100 -191 0
67 152 195 0
-46 -47 -188 0
-41 -61 -67 0
-47 112 -117 0
-7 -119 -125 0
-117 -145 -152 0
-125 -194 197 0
-18 -31 72 0
6 124 181 0
-124 -128 -198 0
-65 -156 -192 0
-8 67 -128 0
47 135 146 0
-73 -100 152 0
-87 -91 120 0
15 98 181 0
17 66 -156 0
-84 89 101 0
23 -42 -84 0
17 -122 -132 0
-15 -47 -75 0
-139 164 191 0
50 65 78 0
-28 -50 -102 0
77 -127 -191 0
-21 26 163 0
141 158 -188 0
-59 89 -129 0
150 165 180 0
3 -110 -124 0
98 114 -182 0
-45 83 -129 0
11 -153 170 0
25 -144 195 0
-2 103 -177 0
-45 147 -175 0
57 -132 165 0
-49 170 200 0
14 -34 123 0
-55 152 159 0
-17 -89 138 0
-7 103 -176 0
-51 76 185 0
7 -36 -99 0
-125 -129 -134 0
14 -77 -136 0
41 -178 -191 0
54 -122 -130 0
-6 140 186 0
46 -47 200 0
46 -99 151 0
50 68 -194 0
-96 127 137 0
126 177 -197 0
-6 19 -176 0
-87 -108 195 0
3 21 -44 0
-36 100 102 0
52 -56 -122 0
-16 -79 155 0
114 -137 157 0
-68 -150 185 0
-70 -114 151 0
-79 92 -153 0
36 -123 162 0
-15 -48 131 0
-39 -102 128 0
-96 161 -200 0
-2 -4 -158 0
75 146 -192 0
-33 -123 124 0
2 -81 -125 0
-54 109 -195 0
-5 46 166 0
-68 114 -127 0
83 147 -162 0
39 55 -108 0
-4 87 -176 0
17 -126 -198 0
-22 83 91 0
-11 -17 86 0
98 -129 191 0
-38 89 125 0
-104 -153 -194 0
-11 81 -200 0
61 -95 173 0
-1 87 -120 0
-7 159 -187 0
-8 128 190 0
-33 45 181 0
12 130 163 0
-124 128 141 0
25 -165 169 0
-20 -72 161 0
65 -76 -155 0
-136 163 -168 0
-47 -48 -182 0
79 90 -131 0
-24 29 80 0
-45 134 171 0
-83 -95 157 0
95 -133 168 0
-28 -63 -114 0
98 99 186 0
1 26 143 0
52 112 -130 0
-20 69 -200 0
-139 -142 -194 0
-53 123 -178 0
-90 157 -185 0
13 38 -195 0
-101 112 182 0
91 -102 -189 0
-52 -164 194 0
-10 -70 -102 0
-10 -65 -85 0
6 52 102 0
-49 123 -151 0
68 -165 -200 0
-80 153 -195 0
-55 -140 -182 0
21 49 -107 0
-5 -74 149 0
11 65 75 0
7 -73 -107 0
13 128 -174 0
59 119 -155 0
-7 -66 117 0
106 -130 166 0
-85 -150 -155 0
27 71 -116 0
-62 70 112 0
-2 166 174 0
30 -98 152 0
37 -62 -110 0
33 -48 -128 0
-19 -74 -123 0
54 65 75 0
128 -165 189 0
60 -94 -195 0
-84 141 189 0
110 -124 128 0
60 74 167 0
9 -82 112 0
-39 -158 194 0
-40 -51 -161 0
-17 28 -176 0
46 144 197 0
-35 -151 -200 0
-46 -81 195 0
-48 75 119 0
16 25 -78 0
90 -159 170 0
-29 -80 -162 0
3 45 -182 0
48 152 -190 0
-26 -164 177 0
141 -152 -162 0
109 -143 -158 0
-3 56 92 0
89 -167 170 0
5 29 189 0
-98 126 138 0
62 -108 -199 0
-80 -138 -143 0
-47 -143 183 0
84 118 153 0
36 -37 -169 0
11 -96 -193 0
45 -96 168 0
61 99 149 0
-5 154 181 0
-12 -47 121 0
158 178 188 0
-85 126 160 0
-73 -104 194 0
-36 -97 -180 0
-24 101 186 0
-32 120 176 0
106 -151 -163 0
-14 111 -178 0
-52 129 -174 0
84 96 198 0
69 -143 171 0
73 -84 89 0
-21 87 137 0
69 109 -150 0
38 100 169 0
90 -118 -188 0
-27 -43 -78 0
42 79 104 0
117 140 -161 0
-138 -148 -165 0
-73 82 92 0
-33 103 182 0
107 -144 179 0
-18 -40 -80 0
102 116 -131 0
-44 -65 -136 0
-8 107 151 0
129 -167 188 0
-5 -38 152 0
65 95 166 0
-48 -59 -67 0
-39 -46 -172 0
-4 5 -172 0
78 135 -157 0
107 -160 -164 0
-113 122 -200 0
-5 -173 -187 0
-74 125 155 0
-10 45 -144 0
-113 127 140 0
31 -100 126 0
82 -102 -115 0
-4 -149 -188 0
-95 115 166 0
-62 -193 196 0
-121 137 191 0
-58 -79 100 0
-23 30 -198 0
24 51 -122 0
-2 -114 166 0
-95 153 -154 0
145 -181 -195 0
-54 -103 -171 0
-6 84 87 0
4 94 -126 0
-24 26 -32 0
8 36 -181 0
21 28 135 0
-22 40 -114 0
2 23 -195 0
-7 54 -106 0
116 136 -139 0
-55 102 121 0
-24 153 -194 0
-36 85 168 0
-139 143 186 0
64 -125 -192 0
-103 146 -151 0
28 42 129 0
-76 -83 -108 0
11 97 -137 0
-61 172 199 0
46 -95 199 0
29 -95 -100 0
-5 13 -190 0
-6 164 174 0
9 -81 199 0
-93 -163 -172 0
104 -129 163 0
-35 -119 -173 0
79 106 -123 0
-5 78 -82 0
-4 124 187 0
-60 109 -200 0
34 171 190 0
-63 117 156 0
-78 87 -145 0
49 -133 196 0
23 82 186 0
-9 -94 -161 0
-22 91 -99 0
-24 -37 188 0
23 -64 105 0
37 67 158 0
-39 -81 -119 0
30 48 136 0
-43 95 131 0
-85 99 138 0
22 -70 -151 0
-45 -130 -155 0
7 -64 169 0
-137 -163 190 0
50 -171 179 0
46 158 -160 0
48 142 168 0
-49 -76 -96 0
-52 -169 -193 0
1 25 173 0
-12 27 -102 0
-16 -19 -37 0
11 145 -190 0
-48 144 -189 0
21 55 128 0
16 131 164 0
-1 -131 165 0
45 -63 152 0
-13 -85 108 0
-48 -93 -175 0
73 -155 192 0
76 -92 -114 0
22 160 177 0
21 -123 -160 0
27 127 -192 0
-96 -158 170 0
-10 11 -81 0
-13 -25 -66 0
-31 47 -97 0
-13 -149 -161 0
61 122 174 0
52 -63 -116 0
-68 -88 -172 0
-41 53 73 0
57 122 130 0
55 122 -187 0
48 -143 154 0
-141 158 -185 0
34 110 -135 0
-102 -125 149 0
-18 87 194 0
-37 92 132 0
117 -174 -183 0
11 18 -81 0
-82 137 -176 0
-21 113 125 0
86 -171 -197 0
-58 -63 -175 0
-63 -84 -94 0
90 99 -110 0
-49 -88 -156 0
-48 51 185 0
-45 51 134 0
3 -96 -126 0
42 57 -178 0
-68 -130 -145 0
-17 -98 -132 0
89 97 117 0
35 50 152 0
31 -56 -144 0
39 -131 -135 0
-72 90 -129 0
18 89 -114 0
-8 10 -33 0
41 60 76 0
-57 127 194 0
-4 54 190 0
-29 -98 179 0
16 -51 -152 0
76 -147 -151 0
-15 -52 -95 0
-8 -45 166 0
89 -164 -185 0
-10 122 -140 0
