c description: Random 4-CNF over 100 variables and 300 clauses
c generator: CNFgen (0.9.5)
c copyright: (C) 2012-2026 Massimo Lauria <massimo.lauria@uniroma1.it>
c url: https://massimolauria.net/cnfgen
c
p cnf 100 300
6 27 -91 95 0
22 -57 -89 -91 0
25 -30 -59 -83 0
13 -56 -60 84 0
-17 18 62 -95 0
-15 29 63 73 0
-6 75 -81 -96 0
37 38 75 -88 0
-9 -33 47 72 0
27 40 -68 -91 0
-2 -16 -40 45 0
-4 32 -67 -70 0
-6 26 -29 -66 0
2 -4 6 39 0
2 58 -59 -92 0
29 59 67 74 0
7 57 81 94 0
-13 -68 85 91 0
29 65 -81 82 0
-31 -59 87 -95 0
3 -6 66 83 0
17 31 55 -63 0
-3 -20 -49 94 0
20 21 -56 57 0
50 75 -89 -91 0
-19 42 -47 -54 0
-22 -46 -56 69 0
-21 50 84 99 0
-3 -13 36 -80 0
-18 -36 -70 89 0
2 -48 -75 84 0
-19 -47 71 92 0
-42 -62 -73 -81 0
21 -46 70 83 0
-11 73 82 92 0
-22 31 -77 92 0
2 21 64 -85 0
17 19 -52 -57 0
-20 -29 96 99 0
-12 22 -24 -82 0
23 32 -34 94 0
66 -72 -94 -98 0
14 -19 41 42 0
28 58 -63 83 0
23 -56 69 92 0
19 -25 26 67 0
61 63 -76 99 0
3 -38 -57 77 0
3 -24 30 65 0
-10 30 -76 78 0
65 87 -88 -96 0
-49 -50 53 -87 0
-7 -36 -37 -93 0
-20 -25 45 -62 0
-26 -79 95 100 0
-13 61 90 91 0
-15 -20 51 88 0
-25 44 53 84 0
-6 -9 16 -65 0
-17 -27 50 -77 0
-16 -24 42 -95 0
-26 -52 -57 87 0
21 62 -83 90 0
48 -86 -94 -95 0
-9 -38 -55 94 0
-43 -53 59 -60 0
-3 -16 -35 56 0
85 -87 -95 97 0
35 -50 65 -85 0
-24 38 -39 -84 0
-2 -20 38 -66 0
8 -66 -98 99 0
23 -34 51 52 0
52 -59 -64 93 0
10 16 -32 -48 0
16 -22 57 58 0
26 62 -71 -84 0
-46 48 81 95 0
44 -49 -61 -94 0
46 -73 -87 -100 0
-60 76 -85 100 0
-12 27 41 44 0
8 -33 -52 -72 0
-9 37 91 97 0
-25 37 43 49 0
9 11 -19 -75 0
-11 -77 80 -86 0
46 -79 87 -88 0
25 -68 -94 -98 0
30 -48 56 74 0
-3 35 68 -97 0
-24 45 69 83 0
-27 -29 -58 -95 0
-25 50 64 69 0
2 -49 59 -67 0
10 -44 -95 98 0
-19 -31 -82 -98 0
-57 -61 -87 91 0
53 84 87 90 0
26 -32 56 87 0
9 37 50 -64 0
-24 -27 -58 -76 0
42 -49 -53 80 0
-6 -33 79 99 0
59 82 85 -97 0
-14 79 87 -90 0
-26 -27 44 -54 0
-43 54 67 -78 0
23 -39 76 -94 0
15 58 -84 -86 0
22 37 77 -99 0
-39 48 -68 82 0
3 -15 45 65 0
9 -28 93 97 0
22 -33 90 100 0
-33 -39 90 97 0
35 57 74 -89 0
1 -11 53 -59 0
17 49 -56 94 0
22 -52 62 80 0
47 -51 -73 84 0
7 46 51 93 0
2 -54 -64 69 0
20 31 -60 -100 0
5 22 -23 -91 0
-1 37 43 -68 0
-7 -54 -59 78 0
-21 -43 49 -83 0
-15 -23 85 90 0
27 -38 -43 64 0
38 -42 -48 -74 0
-9 -10 49 77 0
20 -39 -81 -95 0
13 35 63 100 0
10 -42 48 -64 0
13 -60 79 89 0
16 30 -37 -74 0
39 -54 -76 -100 0
-1 4 11 -54 0
-1 11 12 25 0
19 -56 59 -66 0
-14 27 38 -43 0
23 32 47 -79 0
22 -72 -82 96 0
43 59 76 88 0
11 17 27 72 0
17 -20 34 -68 0
34 53 -75 80 0
-15 41 -66 83 0
1 -36 38 88 0
55 -65 -82 95 0
-2 -7 38 -81 0
43 -51 -54 61 0
-6 -31 -35 -46 0
-3 -4 -22 41 0
46 -66 90 -95 0
-16 37 69 71 0
-5 -24 50 52 0
-35 53 -66 70 0
-6 29 -64 97 0
53 -62 63 -72 0
-14 -35 -37 92 0
-16 -18 -72 85 0
9 -19 -59 -90 0
14 28 55 -92 0
-12 32 -42 -83 0
-8 -40 -61 80 0
-2 -31 60 70 0
2 -8 -35 59 0
27 29 -49 56 0
-6 -10 23 -82 0
13 55 -84 99 0
9 28 74 -84 0
3 55 78 -83 0
3 -44 -55 -62 0
16 -60 88 99 0
16 22 44 -86 0
-3 -4 14 -42 0
48 54 78 90 0
-10 12 19 -98 0
21 -26 47 63 0
-7 13 77 -100 0
-26 -37 -38 68 0
21 35 -73 82 0
24 -43 61 -91 0
2 -32 -70 -92 0
13 -48 -54 94 0
19 -34 -51 67 0
14 -29 78 -87 0
52 -54 64 -66 0
14 -42 47 -76 0
-8 -12 -28 -67 0
7 22 28 -51 0
55 -59 -91 -98 0
13 35 -51 80 0
-23 -29 58 -67 0
-35 50 58 -98 0
-21 23 71 -91 0
31 45 60 -61 0
-1 28 -70 74 0
-28 -61 -67 -75 0
-14 -16 -24 -30 0
41 44 64 70 0
-22 59 70 -94 0
22 42 -46 91 0
9 -47 -69 92 0
-23 26 -39 86 0
82 91 -93 97 0
20 29 37 -38 0
8 -14 60 66 0
-17 -27 78 85 0
54 56 77 -89 0
16 -56 69 -79 0
-21 -42 -69 100 0
21 -58 74 -97 0
-36 -38 -42 98 0
-4 -14 42 -45 0
4 -5 24 60 0
14 26 -76 -80 0
48 -52 -78 97 0
-24 -25 -64 -78 0
5 6 32 43 0
-12 47 -93 94 0
31 -49 56 -98 0
6 -32 -97 100 0
4 17 55 56 0
20 -27 29 -63 0
7 15 29 34 0
-44 67 -88 100 0
-18 19 60 -88 0
-26 31 39 -70 0
-19 -38 -43 88 0
-8 -45 55 66 0
36 38 81 89 0
-6 29 30 46 0
17 25 67 -73 0
-21 -37 -53 56 0
18 37 -48 -75 0
26 90 -91 97 0
4 -46 -78 100 0
29 38 41 65 0
-32 46 72 75 0
-6 -9 19 -68 0
1 -17 45 -60 0
2 -52 -67 -71 0
16 -22 55 -71 0
36 -37 41 47 0
13 -57 76 -94 0
-10 18 -42 95 0
36 51 -53 62 0
-46 56 -69 -96 0
-7 -23 81 -97 0
-13 -20 28 94 0
2 44 56 96 0
-22 35 -78 -84 0
-38 -41 66 -70 0
-16 33 58 91 0
-3 6 -70 78 0
30 -35 57 -95 0
35 37 91 -100 0
22 27 48 89 0
38 -75 -78 83 0
-14 71 -82 100 0
12 -19 25 100 0
41 -60 72 -81 0
8 -21 -23 -45 0
-4 18 60 -96 0
-3 15 -32 -61 0
-34 65 72 -78 0
11 17 -88 93 0
-2 5 9 85 0
-5 9 -38 40 0
-9 35 -41 -82 0
39 45 51 99 0
-14 24 -28 -61 0
37 41 83 -97 0
-81 89 -91 98 0
-14 -51 -65 -82 0
50 -55 -69 -92 0
14 -18 54 93 0
8 20 -30 56 0
-24 -56 -82 -84 0
-23 62 66 -87 0
-3 26 -88 -94 0
4 -6 29 38 0
-27 -40 -42 57 0
8 16 -25 -76 0
3 22 -46 66 0
12 32 -46 86 0
13 24 33 -80 0
21 39 -79 -98 0
-13 47 -75 89 0
8 12 -56 70 0
-25 60 78 -88 0
50 -60 -79 81 0
-19 35 -49 -88 0
-3 4 40 -64 0
10 24 45 -51 0
6 -55 -67 80 0
12 -26 -54 64 0
