c description: Random 3-CNF over 190 variables and 798 clauses
c generator: CNFgen (0.9.5)
c copyright: (C) 2012-2026 Massimo Lauria <massimo.lauria@uniroma1.it>
c url: https://massimolauria.net/cnfgen
c
p cnf 190 798
32 60 -72 0
42 72 -108 0
70 93 -96 0
115 -118 -168 0
18 -72 153 0
-2 -119 151 0
-97 143 183 0
3 35 -90 0
26 53 -88 0
-25 95 -144 0
-93 -125 -165 0
59 63 113 0
-38 -74 179 0
23 -113 150 0
-48 82 -183 0
-82 84 138 0
-33 -105 124 0
-91 -134 -142 0
34 -99 154 0
5 42 -165 0
-83 -133 160 0
-65 169 170 0
-24 81 189 0
67 -94 130 0
81 148 -170 0
-5 -80 -118 0
89 140 155 0
-77 90 110 0
-78 104 -179 0
46 -52 60 0
9 45 -110 0
-28 -153 -173 0
41 -77 -173 0
-150 166 -170 0
35 -104 190 0
-109 124 -173 0
-7 -150 179 0
72 77 155 0
-87 88 118 0
107 -120 -134 0
-121 126 -169 0
-2 162 -183 0
-44 -74 -173 0
-71 116 -133 0
-69 -118 127 0
-30 -43 150 0
-15 48 93 0
63 -89 -138 0
-19 -103 -151 0
46 -48 149 0
98 161 -167 0
69 -78 -150 0
39 -55 -70 0
-64 107 -129 0
96 140 -162 0
176 -186 -189 0
-71 77 112 0
-89 -139 174 0
-99 141 -146 0
-5 -9 121 0
-41 -43 54 0
-5 69 145 0
-25 -55 148 0
46 118 -167 0
8 102 -163 0
70 110 156 0
106 -110 -138 0
26 -175 182 0
-41 -112 166 0
6 69 170 0
12 -38 -112 0
-34 -145 160 0
12 176 -177 0
89 -111 119 0
-98 -141 -166 0
95 -108 174 0
9 -59 -173 0
54 -97 163 0
30 -65 -157 0
19 -122 -162 0
-69 86 147 0
36 -54 -61 0
87 99 134 0
-102 134 -159 0
-103 121 -176 0
58 88 96 0
4 12 -37 0
143 156 -157 0
42 93 136 0
12 -31 -33 0
34 -44 164 0
-44 145 155 0
5 75 104 0
-28 -108 117 0
-86 -88 104 0
-43 -146 174 0
-129 -130 -178 0
37 100 -170 0
-77 -95 -100 0
39 -96 112 0
-22 34 179 0
44 -152 183 0
-13 99 175 0
-109 -154 176 0
-31 -32 -185 0
73 79 -110 0
21 -46 156 0
-76 -85 -150 0
142 -154 -156 0
49 -169 177 0
-112 -138 143 0
-22 -33 -85 0
-6 -11 151 0
-48 149 -167 0
-42 81 -166 0
-7 -52 -76 0
-15 -143 188 0
27 71 75 0
-49 126 -180 0
-8 70 -166 0
79 116 173 0
-102 157 -174 0
-8 -20 -42 0
-38 -61 -81 0
73 86 131 0
-35 -61 101 0
77 101 173 0
45 85 -155 0
25 92 98 0
-42 55 118 0
73 -102 -166 0
65 -92 172 0
-43 -132 -175 0
-34 -101 124 0
-35 109 -128 0
6 10 129 0
-90 -161 -173 0
33 108 -114 0
10 -49 108 0
-32 73 -168 0
45 82 144 0
7 119 -169 0
-9 -101 -117 0
-71 109 151 0
87 -155 -172 0
-64 86 99 0
-44 -83 -144 0
75 124 -146 0
-56 -58 117 0
53 -113 115 0
54 170 -184 0
-96 113 177 0
1 -86 -169 0
14 23 46 0
-10 -75 97 0
-46 -129 143 0
-52 65 -147 0
-6 -59 147 0
127 166 167 0
-49 -121 183 0
-26 -50 141 0
-30 -98 -105 0
79 -119 -149 0
9 -106 154 0
41 112 -153 0
-40 -131 190 0
106 160 176 0
6 -23 187 0
-32 -78 102 0
-60 86 -166 0
-50 156 -161 0
111 114 -146 0
-35 46 -76 0
67 -102 157 0
26 -32 -59 0
-64 -69 71 0
71 89 133 0
-20 -65 -155 0
149 160 185 0
-4 48 -173 0
50 64 152 0
99 150 174 0
53 -160 166 0
-9 83 172 0
-103 128 132 0
80 -83 -84 0
33 -106 -116 0
-100 -143 150 0
-83 121 -122 0
29 -94 -107 0
-18 -31 152 0
18 -68 -97 0
26 -142 -185 0
14 -129 178 0
102 -111 119 0
-34 110 145 0
41 120 -123 0
147 161 162 0
-64 -89 158 0
-75 -154 -163 0
-88 -179 -185 0
-32 -70 123 0
-53 54 97 0
-42 -70 161 0
25 104 -116 0
20 28 88 0
-5 -100 -152 0
91 130 140 0
117 147 -162 0
-2 -31 87 0
24 -57 66 0
82 91 -120 0
50 -76 -144 0
31 140 -152 0
76 -93 161 0
-49 59 97 0
9 -75 99 0
-43 56 -174 0
-72 163 -176 0
-33 -47 186 0
23 63 160 0
-2 -51 68 0
145 -171 181 0
105 -116 -189 0
88 126 -130 0
80 142 167 0
22 -73 -170 0
50 -76 -183 0
-8 -67 159 0
48 73 -84 0
54 106 -158 0
91 -143 147 0
-16 146 -162 0
-43 141 186 0
-6 -103 -132 0
-19 -33 100 0
13 -89 -176 0
57 81 135 0
-92 143 -184 0
13 57 -98 0
60 93 187 0
53 94 -117 0
-55 -126 -176 0
6 -65 171 0
26 -28 -184 0
-28 -159 173 0
-77 146 -150 0
27 -34 179 0
39 -86 99 0
-92 97 -109 0
60 131 -178 0
48 115 157 0
-50 67 126 0
66 -76 -118 0
-26 -38 -97 0
13 -106 -170 0
-8 110 -176 0
-10 35 -102 0
-62 -86 131 0
21 -97 -137 0
-60 62 -96 0
53 73 115 0
24 -64 -103 0
-9 -14 142 0
98 -163 -184 0
24 100 120 0
-8 145 161 0
-18 -124 154 0
-44 68 -104 0
17 22 179 0
102 118 -166 0
67 143 -156 0
-8 27 -86 0
-55 74 -168 0
3 -124 -162 0
120 -123 173 0
54 -67 -123 0
-70 -74 182 0
94 -167 176 0
-17 -123 156 0
37 -46 -183 0
-82 142 150 0
6 66 158 0
-41 111 112 0
-38 59 131 0
12 76 -150 0
73 -151 162 0
26 -59 -153 0
23 -77 -126 0
-77 126 -137 0
-3 63 73 0
9 78 -153 0
4 -42 -144 0
36 182 -187 0
-15 -65 -156 0
-61 -90 -152 0
15 -31 47 0
14 28 190 0
18 -32 -182 0
-18 65 68 0
-93 132 -179 0
-17 -126 -177 0
113 164 166 0
-8 -18 -157 0
144 161 -164 0
16 -116 122 0
11 -99 181 0
32 64 78 0
-9 -158 -172 0
-6 33 -132 0
-58 -65 -169 0
-27 -55 -178 0
46 -81 -174 0
6 -18 -44 0
-77 -86 103 0
53 80 143 0
9 18 99 0
-24 -37 -112 0
21 -120 181 0
32 63 116 0
99 148 176 0
125 131 -144 0
-1 -5 -120 0
40 -73 -171 0
-64 145 -156 0
76 113 -167 0
78 153 183 0
65 174 -182 0
-111 -142 165 0
78 -121 167 0
23 -79 160 0
-4 -25 174 0
28 -78 -164 0
-143 156 159 0
73 -96 -125 0
-62 -164 184 0
63 132 173 0
49 111 176 0
-21 -97 110 0
-82 131 165 0
-14 33 -98 0
53 186 187 0
-62 -106 181 0
21 49 -92 0
9 -18 154 0
57 60 -108 0
65 93 -130 0
78 111 141 0
-29 106 -173 0
55 108 -159 0
-119 127 182 0
-44 -70 -93 0
27 79 -176 0
18 180 185 0
-71 135 178 0
48 54 -156 0
-28 59 -92 0
-7 81 148 0
-65 87 -88 0
-32 -137 154 0
-22 -166 186 0
22 -107 -130 0
15 -161 -168 0
-60 122 -140 0
-39 120 -147 0
4 26 149 0
-64 -107 -176 0
51 55 -85 0
84 167 -186 0
-75 -82 168 0
57 -158 176 0
-15 -53 141 0
-93 131 -148 0
16 -84 122 0
-11 98 -143 0
25 -112 -151 0
46 -68 116 0
-53 -56 -64 0
53 80 -87 0
-64 -106 -179 0
-69 95 -132 0
45 -175 -176 0
-38 89 -185 0
1 138 143 0
90 -161 -166 0
43 83 -144 0
-25 -42 -147 0
-5 -59 93 0
-22 145 -180 0
31 -159 177 0
33 93 -144 0
-51 125 129 0
-13 -126 -171 0
-12 106 129 0
17 -104 145 0
118 128 -165 0
-57 113 -180 0
70 -92 -103 0
16 131 -175 0
48 -60 -146 0
-41 139 -179 0
-41 -133 145 0
19 96 -131 0
57 80 -145 0
62 84 -177 0
-7 -64 161 0
-39 -151 180 0
-7 -106 179 0
5 -9 -111 0
10 102 -150 0
9 -105 -170 0
19 35 79 0
116 149 177 0
15 16 105 0
24 -77 83 0
-85 91 -190 0
31 76 81 0
-84 88 104 0
53 -59 -150 0
-104 -140 175 0
114 125 154 0
67 -116 157 0
-145 -158 190 0
9 -35 -100 0
-33 95 156 0
34 116 186 0
28 -107 124 0
-47 119 -157 0
23 40 99 0
10 -74 -92 0
8 79 172 0
-17 91 95 0
-29 47 -161 0
-24 31 71 0
-7 61 -108 0
104 -127 186 0
-50 -176 -180 0
-35 -50 148 0
-114 -117 145 0
7 94 -101 0
84 -92 104 0
-37 126 150 0
-6 -61 176 0
-60 -117 -151 0
-22 45 -56 0
45 56 -92 0
-140 156 -181 0
-27 36 -117 0
14 -28 -74 0
16 27 106 0
54 58 -90 0
-12 128 -179 0
95 -121 176 0
-123 149 154 0
-35 73 85 0
36 97 126 0
-6 -161 -170 0
27 40 -166 0
-55 -142 -162 0
-140 147 185 0
22 -81 178 0
49 -127 155 0
4 8 67 0
-16 -94 179 0
3 -120 125 0
-118 153 172 0
-68 -69 -170 0
-47 -145 146 0
-42 -43 -66 0
21 -49 111 0
-162 -166 -179 0
86 -102 -178 0
-49 142 -173 0
52 -82 -93 0
-58 -87 171 0
19 -44 78 0
36 -75 93 0
57 -112 188 0
-53 -92 181 0
44 -144 152 0
-102 120 173 0
-32 -66 -157 0
-27 -54 181 0
-32 68 -150 0
112 -134 -185 0
33 -147 178 0
-41 -116 -136 0
-17 -91 -163 0
61 128 -147 0
17 -44 -74 0
4 34 -159 0
-38 69 150 0
20 -110 -179 0
-127 -138 -140 0
2 129 134 0
-32 65 -164 0
12 -121 126 0
122 -130 -174 0
14 110 -179 0
-72 -97 -140 0
-69 104 162 0
86 177 187 0
-94 155 171 0
31 82 -93 0
-108 119 -149 0
20 -90 158 0
55 116 161 0
47 -56 76 0
-116 140 -151 0
87 -157 -170 0
98 102 178 0
3 120 169 0
-30 66 -134 0
153 -177 185 0
-96 -127 -179 0
39 96 159 0
35 140 145 0
115 -125 -163 0
-20 70 -112 0
24 -101 124 0
-31 -120 188 0
35 -159 -174 0
-101 -102 154 0
-54 -65 170 0
-23 -115 -177 0
-16 -58 -142 0
26 -56 -97 0
12 -27 -173 0
5 -134 154 0
-2 -63 104 0
56 -69 185 0
14 20 141 0
-75 -122 150 0
-100 -141 153 0
-54 -60 -179 0
-27 -119 132 0
28 -99 145 0
44 -81 -165 0
-18 103 164 0
141 162 169 0
3 39 -128 0
23 31 -144 0
-25 64 -119 0
-26 -108 -147 0
23 -44 -62 0
-10 94 -150 0
75 -138 -188 0
50 146 -158 0
-4 56 -61 0
-40 165 -167 0
7 -19 28 0
48 -106 121 0
10 90 -137 0
56 -151 -159 0
13 -106 -136 0
43 -152 182 0
-71 97 139 0
7 42 55 0
28 -83 -102 0
-41 124 151 0
22 158 160 0
122 155 -182 0
101 142 159 0
-50 -64 108 0
-25 39 -169 0
-19 40 112 0
-75 -79 125 0
-38 -114 116 0
-135 -179 -188 0
-8 -23 184 0
26 -123 189 0
113 150 189 0
-7 -49 -130 0
-48 108 186 0
-44 48 -57 0
-62 -109 -176 0
16 128 163 0
38 -139 177 0
3 -61 140 0
-6 50 88 0
-99 105 133 0
-11 39 -73 0
-95 156 163 0
18 28 158 0
52 73 76 0
-82 -123 167 0
14 43 -121 0
42 -119 -134 0
71 113 122 0
109 154 -185 0
-20 -40 76 0
22 98 188 0
78 -123 163 0
72 -112 143 0
29 129 136 0
81 128 -160 0
14 40 -142 0
138 -141 -168 0
51 117 163 0
-53 131 -180 0
-84 94 -105 0
-66 -81 -123 0
31 -78 184 0
1 -33 89 0
75 -76 130 0
11 -81 -163 0
-29 169 179 0
30 165 -171 0
1 51 170 0
-16 53 184 0
-6 116 178 0
22 27 -113 0
-3 -28 -103 0
55 -97 -178 0
-10 -49 162 0
44 47 -138 0
18 -72 156 0
-20 -90 149 0
-18 54 -104 0
-36 118 -155 0
-14 -113 160 0
22 -120 123 0
92 155 181 0
-1 -11 58 0
-79 -95 160 0
61 -89 -177 0
-9 75 -79 0
126 137 166 0
65 -106 114 0
-3 94 -136 0
66 82 132 0
73 -117 160 0
27 -107 179 0
107 130 178 0
41 -107 141 0
58 -69 -188 0
2 -21 188 0
-16 38 71 0
-91 109 -150 0
79 -116 150 0
11 -30 171 0
-41 93 -172 0
-101 -143 -188 0
35 50 -177 0
-33 -69 121 0
19 -25 104 0
20 -42 83 0
-23 160 -164 0
52 118 141 0
32 64 -83 0
-74 75 168 0
82 -129 158 0
-24 -143 -146 0
21 87 -100 0
23 107 -176 0
-70 -79 135 0
37 127 134 0
-4 -133 139 0
92 -103 171 0
9 -69 -144 0
11 -43 -179 0
-101 126 185 0
41 81 165 0
83 84 -87 0
38 148 -158 0
-9 50 167 0
-4 80 -103 0
3 -156 -169 0
48 51 124 0
-64 78 -84 0
25 76 -155 0
16 -114 149 0
-90 -129 184 0
14 27 -54 0
-99 163 164 0
16 93 -118 0
31 77 -138 0
-19 -58 -177 0
-59 -164 183 0
-25 -86 -113 0
-117 122 -126 0
-8 11 -77 0
-96 108 126 0
96 99 -144 0
85 144 173 0
-52 64 -116 0
-10 -99 -189 0
-1 -66 183 0
-19 -94 149 0
94 111 125 0
-14 -48 -93 0
-83 128 -167 0
-3 26 -95 0
16 97 169 0
71 93 -185 0
36 151 163 0
-70 -78 102 0
62 -137 185 0
-10 48 -73 0
139 170 -180 0
34 114 -138 0
54 -72 -100 0
5 -32 -180 0
14 65 -179 0
1 -15 41 0
36 -183 -188 0
-31 -49 -152 0
50 -115 -167 0
-147 168 -171 0
3 -32 -93 0
32 68 -161 0
111 149 178 0
75 -157 -189 0
27 -136 181 0
-29 32 67 0
-20 87 166 0
50 51 107 0
29 144 -180 0
-93 97 146 0
-27 -48 -78 0
56 115 182 0
-5 84 132 0
-16 -63 -147 0
-27 96 -110 0
5 21 -140 0
39 93 163 0
-107 113 -116 0
-5 -49 -94 0
48 -117 172 0
26 -135 -180 0
27 -101 -139 0
-57 -79 -119 0
1 62 -135 0
-82 93 -141 0
43 -74 96 0
91 169 179 0
7 123 162 0
24 -62 -132 0
-29 39 169 0
-70 74 -111 0
82 -134 158 0
-23 89 -187 0
-9 -123 136 0
-53 135 -163 0
123 -149 153 0
-56 106 -185 0
-29 -157 168 0
-58 -73 177 0
-108 -127 151 0
30 -63 127 0
-137 -150 -177 0
-2 38 -123 0
-2 -25 138 0
-5 100 -128 0
-10 -66 -72 0
57 167 185 0
96 -117 -164 0
-59 70 138 0
-49 -134 156 0
79 -90 96 0
2 -133 -161 0
-93 -114 126 0
-30 -38 151 0
58 -113 -161 0
17 91 -106 0
23 -117 143 0
-4 72 137 0
-94 161 -174 0
-22 -124 -190 0
-7 60 -62 0
-13 29 175 0
-10 -59 189 0
85 116 133 0
35 -40 -80 0
-64 127 -139 0
93 -100 190 0
77 111 -119 0
10 55 150 0
35 44 185 0
-10 36 147 0
82 -156 -167 0
145 -160 172 0
11 -23 -122 0
32 -42 -165 0
24 102 127 0
26 53 106 0
-32 -41 -162 0
-55 117 -148 0
93 -119 182 0
-19 58 97 0
40 103 149 0
93 98 132 0
48 77 150 0
121 -168 -178 0
-15 41 -130 0
-39 70 -175 0
-10 -63 -86 0
-112 -115 153 0
