c description: Random 4-CNF over 80 variables and 240 clauses
c generator: CNFgen (0.9.5)
c copyright: (C) 2012-2026 Massimo Lauria <massimo.lauria@uniroma1.it>
c url: https://massimolauria.net/cnfgen
c
p cnf 80 240
-2 11 -19 80 0
5 16 18 77 0
-15 24 -53 -68 0
-4 -8 -30 -52 0
3 11 -47 77 0
5 -22 -31 -55 0
-28 -40 -49 51 0
-38 39 59 -71 0
-24 -36 45 62 0
-5 48 -58 78 0
-9 -29 -65 -69 0
6 10 -25 36 0
-3 25 44 -75 0
-6 -14 -31 -37 0
-4 -20 -45 -78 0
-6 -28 63 67 0
21 56 -65 -70 0
7 -68 -74 -77 0
-5 8 14 -46 0
-1 21 -36 54 0
13 -49 52 -75 0
6 -10 36 44 0
-4 -32 58 -80 0
-9 -12 37 -70 0
-7 -23 69 79 0
-45 -48 -50 -77 0
-36 37 -55 -65 0
19 24 -35 -41 0
-19 -38 -71 74 0
2 28 -38 -61 0
-8 21 30 -60 0
14 22 36 43 0
-16 -31 -67 -68 0
-1 16 -26 -33 0
-19 26 41 -42 0
-11 -30 -48 -77 0
37 -43 -58 -60 0
-4 -5 -29 42 0
3 -26 -38 77 0
9 -17 65 78 0
25 -35 59 78 0
12 17 -50 66 0
1 -12 34 46 0
-14 31 -43 -79 0
-1 10 -43 -52 0
-22 42 -65 78 0
-8 -34 56 78 0
2 -10 45 78 0
-20 -23 39 44 0
30 -41 55 -78 0
3 -12 65 -66 0
13 35 -62 72 0
11 -27 -51 -68 0
2 -39 -59 -78 0
39 -64 -74 75 0
7 15 22 -53 0
23 -37 -52 -58 0
3 -13 41 72 0
14 -27 -66 -72 0
13 -17 23 -54 0
14 -43 67 70 0
8 -29 42 -57 0
-17 -43 -46 -52 0
-15 47 59 -80 0
-3 -28 -33 36 0
9 -13 62 76 0
30 -42 74 78 0
-12 23 -30 -48 0
2 -11 41 -50 0
-26 50 59 74 0
1 -3 39 -57 0
6 38 -56 -62 0
11 -42 -70 72 0
4 14 -22 40 0
-19 -41 -42 -45 0
-11 -34 51 58 0
7 -34 46 77 0
26 -48 62 -67 0
23 50 70 -80 0
8 23 34 -43 0
-2 35 44 57 0
-7 -29 36 59 0
-2 -41 -52 -74 0
-2 -18 46 69 0
-19 42 -46 63 0
-8 -18 30 -40 0
-14 26 -42 70 0
2 3 5 -75 0
7 -18 20 57 0
-27 -58 74 77 0
-21 -33 -54 -69 0
-20 45 -49 -69 0
19 28 55 -58 0
26 45 61 -67 0
-7 8 36 75 0
26 -33 -36 73 0
31 53 -71 76 0
19 -41 -42 -78 0
-12 21 -47 -71 0
-3 4 -5 80 0
-23 -24 -43 55 0
43 -44 54 -63 0
9 47 -70 80 0
-30 -40 50 73 0
-2 15 59 75 0
35 37 -55 -62 0
19 23 40 -76 0
2 -4 23 57 0
-4 -15 -52 -71 0
3 -12 -49 -58 0
5 18 -31 60 0
-26 -31 -47 78 0
6 -20 32 -41 0
27 -74 75 79 0
-51 54 68 71 0
3 34 40 -71 0
-15 73 77 78 0
-22 35 45 64 0
46 -52 -54 -62 0
23 26 38 63 0
12 -17 -20 25 0
17 -47 60 -77 0
-15 -25 -31 -71 0
38 47 50 72 0
30 -52 -53 73 0
4 -25 -37 -74 0
-3 -17 -59 62 0
14 -18 -19 78 0
18 19 -48 76 0
-30 38 41 50 0
-4 -13 54 57 0
1 18 -36 -40 0
7 54 -59 -69 0
-3 -7 25 69 0
23 31 38 -51 0
23 -45 -53 -77 0
-11 24 45 -57 0
14 21 -45 69 0
38 48 67 -69 0
18 -34 56 65 0
-2 -21 -27 75 0
-25 33 -34 76 0
-36 -60 -64 -76 0
32 -54 61 79 0
-46 48 51 74 0
-5 12 41 52 0
19 -48 58 64 0
-16 -43 -50 -52 0
-17 -44 53 -66 0
18 -35 40 -75 0
1 57 62 77 0
14 -46 -53 -57 0
-10 11 -26 30 0
-46 52 57 -71 0
-1 -12 15 51 0
-6 13 -28 -33 0
-15 25 -39 -43 0
5 -12 39 -63 0
-39 43 -45 -77 0
44 -50 53 58 0
6 -38 57 -77 0
-17 22 26 41 0
-17 -22 -39 -45 0
-16 61 75 79 0
5 6 16 78 0
-14 25 -29 -37 0
-3 -21 57 -78 0
-22 -48 69 70 0
-17 37 78 -80 0
-14 -51 -61 75 0
-43 -52 57 79 0
-6 -13 -36 -51 0
-34 -39 -63 -75 0
-5 -7 -12 -55 0
-4 -28 -55 70 0
8 17 -27 58 0
12 15 -35 47 0
-31 -55 -58 61 0
3 37 57 59 0
-21 29 -34 77 0
-8 9 -38 53 0
21 -28 41 75 0
-50 61 -65 71 0
4 -30 -48 55 0
10 13 35 63 0
4 -5 -30 73 0
-8 -29 60 68 0
24 -70 72 80 0
-7 -9 66 77 0
-14 30 -41 -43 0
28 40 44 67 0
10 49 -54 73 0
-5 -41 -42 -65 0
-46 53 -55 -80 0
14 -24 46 -68 0
12 -32 -33 -65 0
-8 41 -72 -77 0
9 10 -49 -76 0
1 -22 -40 48 0
16 -20 38 -66 0
-9 22 62 74 0
4 -22 -31 -69 0
14 -23 -58 -62 0
26 50 -59 75 0
-3 12 -26 52 0
-13 22 42 -44 0
1 -11 -17 -38 0
-22 29 -43 44 0
20 -32 -61 62 0
-19 44 -58 -79 0
-8 25 -52 62 0
-4 42 56 65 0
31 39 63 64 0
1 24 -51 -53 0
-11 -42 -51 53 0
32 36 48 -49 0
42 -47 -55 62 0
-3 15 -28 -41 0
31 43 -45 -49 0
-5 14 25 -64 0
-1 11 -32 58 0
6 15 -47 79 0
13 15 18 80 0
8 18 -39 65 0
-11 -15 31 56 0
5 66 -67 -76 0
-25 46 -60 -70 0
34 37 64 76 0
-10 24 -42 -67 0
-7 -20 -40 43 0
37 43 49 64 0
-24 -25 36 56 0
1 13 52 70 0
18 22 40 52 0
22 -34 49 -53 0
-2 3 -32 37 0
-19 -23 48 -74 0
-22 32 -67 -80 0
45 -66 74 76 0
-25 40 -51 77 0
