c description: Random 3-CNF over 120 variables and 360 clauses
c generator: CNFgen (0.9.5)
c copyright: (C) 2012-2026 Massimo Lauria <massimo.lauria@uniroma1.it>
c url: https://massimolauria.net/cnfgen
c
p cnf 120 360
7 89 -116 0
-64 -79 -99 0
-4 -16 24 0
-3 59 74 0
53 59 102 0
23 84 -95 0
-29 33 -65 0
-32 -96 113 0
-85 86 105 0
34 92 102 0
-40 -82 -89 0
64 104 -115 0
-40 -49 -77 0
41 59 -76 0
24 83 95 0
-46 71 -119 0
21 -60 -92 0
-53 81 -96 0
-87 92 117 0
23 -79 -106 0
14 -29 98 0
-23 46 -89 0
-43 -44 98 0
-2 -106 111 0
57 69 71 0
64 84 -117 0
-43 -47 -48 0
-51 80 -103 0
-51 -82 -102 0
43 62 66 0
-50 70 84 0
4 67 70 0
59 -89 -101 0
58 -59 75 0
-44 -80 102 0
29 -31 -49 0
-13 42 -62 0
-23 -41 96 0
-11 -40 109 0
-6 -28 30 0
19 -26 70 0
-6 -36 88 0
-73 107 -117 0
35 -70 -95 0
58 -84 96 0
-55 74 75 0
-4 33 115 0
18 28 88 0
-32 64 102 0
-96 -101 119 0
1 26 91 0
7 66 99 0
-30 -39 112 0
-17 -79 -96 0
73 100 109 0
16 -33 61 0
-1 -41 66 0
-2 23 -46 0
-16 98 -113 0
-2 51 -116 0
50 67 71 0
14 35 -63 0
-22 35 -78 0
31 75 80 0
-12 -31 85 0
-87 90 -99 0
-54 -67 77 0
80 95 108 0
-73 91 106 0
41 61 -96 0
-29 -32 -60 0
17 32 -39 0
-8 43 106 0
14 38 75 0
-18 93 118 0
28 49 61 0
36 -53 54 0
12 18 -94 0
-40 -68 107 0
-44 -45 54 0
40 -54 -75 0
-7 -51 -103 0
-13 23 -27 0
-25 -82 -119 0
18 79 -114 0
38 72 -105 0
34 54 -118 0
51 53 97 0
-34 -53 87 0
-4 -14 -69 0
-49 -63 -107 0
24 -85 -101 0
-1 40 57 0
1 -17 76 0
6 -18 -28 0
9 -43 -92 0
5 -11 -38 0
-1 -85 91 0
67 76 -97 0
-6 -19 -90 0
-26 -58 102 0
-45 -101 119 0
43 -47 88 0
-37 41 -92 0
-30 77 -86 0
47 -80 -94 0
37 53 56 0
-9 -29 54 0
-68 72 99 0
-2 -3 -23 0
-6 39 112 0
-97 -110 -112 0
50 112 -117 0
16 -76 -95 0
4 -9 -12 0
62 -98 99 0
-25 -35 -55 0
-29 -53 -75 0
35 -39 -62 0
43 51 120 0
27 -69 -118 0
55 64 -87 0
-6 73 -90 0
7 -22 -29 0
-3 -47 -101 0
59 -106 -112 0
37 -61 -69 0
-17 -56 109 0
-15 -65 -116 0
-12 47 48 0
36 61 -115 0
-37 -65 -108 0
18 -76 -96 0
49 52 85 0
-5 -59 71 0
-11 -77 -115 0
52 -78 -85 0
17 65 -83 0
8 93 112 0
7 -86 -98 0
-6 11 -37 0
-30 32 -112 0
94 112 115 0
16 -52 -61 0
-58 91 -112 0
-29 -96 97 0
37 38 81 0
-3 -67 -107 0
1 30 45 0
-10 54 75 0
10 26 -115 0
20 101 106 0
-35 -65 -109 0
-10 -20 -70 0
4 83 -91 0
-3 83 -111 0
-2 20 82 0
-18 -31 105 0
-10 -73 -108 0
12 29 78 0
55 -86 -103 0
-6 14 -33 0
11 -51 -65 0
6 37 -91 0
1 48 -114 0
-22 108 -118 0
60 108 -111 0
1 -41 86 0
-75 -96 120 0
-14 48 -59 0
23 -35 91 0
-46 -100 102 0
33 45 -118 0
-41 -85 -117 0
12 42 -54 0
38 61 -86 0
-12 24 58 0
62 117 119 0
21 47 -82 0
-46 -71 -90 0
8 -55 110 0
5 75 -110 0
-27 -30 40 0
46 -91 -98 0
26 36 115 0
-12 -43 108 0
3 -59 73 0
-20 46 -117 0
23 32 -88 0
26 45 117 0
66 74 92 0
6 20 -94 0
-31 -41 -108 0
-63 -94 96 0
-12 71 108 0
-18 36 59 0
-42 62 102 0
53 -93 -118 0
14 -94 -115 0
43 -45 -90 0
55 -56 -107 0
47 86 -115 0
11 -17 19 0
51 67 -115 0
-42 -93 -99 0
-54 67 -113 0
-25 103 -111 0
-5 -102 -112 0
8 49 106 0
-48 -74 -76 0
-14 -54 75 0
70 -107 120 0
7 34 -88 0
-89 90 -111 0
-90 -91 -99 0
6 106 113 0
-72 -86 -112 0
29 66 75 0
-12 -55 -58 0
-8 -34 85 0
-46 -79 -80 0
-20 27 112 0
-67 72 -116 0
1 -24 -36 0
-2 55 63 0
56 70 91 0
-22 49 58 0
36 50 -73 0
33 -34 -72 0
-5 -8 117 0
53 -69 -120 0
-10 -12 -63 0
52 -113 -120 0
-39 -66 87 0
12 -26 51 0
-5 31 36 0
-38 74 -113 0
65 -90 109 0
-14 23 26 0
36 -79 -92 0
-16 -62 -100 0
-40 55 116 0
-8 -64 -79 0
-61 -76 -90 0
-53 55 -72 0
-43 -90 97 0
-28 68 -109 0
25 -70 -101 0
45 85 -92 0
8 42 -78 0
12 78 -94 0
48 -106 107 0
31 79 -101 0
69 -77 -112 0
19 -43 -78 0
76 90 117 0
69 -70 98 0
-5 -88 -97 0
22 28 -34 0
-41 73 98 0
-40 -43 112 0
-41 -47 -93 0
18 -33 79 0
60 -65 76 0
61 68 94 0
-89 -100 105 0
7 -60 -103 0
-60 -68 -72 0
-75 -86 107 0
-27 -51 -82 0
11 -31 71 0
-45 -52 -59 0
8 -55 -109 0
13 63 93 0
54 56 116 0
13 60 -97 0
51 53 -75 0
-2 47 -75 0
42 46 68 0
13 92 93 0
22 25 -112 0
67 96 112 0
-34 -90 -115 0
-23 91 -117 0
-54 67 -74 0
-58 -99 -112 0
-39 -67 97 0
15 18 95 0
-11 70 115 0
46 88 104 0
-38 73 78 0
33 55 -111 0
71 -76 92 0
10 -63 103 0
47 -72 76 0
-28 57 -111 0
85 -87 -118 0
44 -49 70 0
18 81 -102 0
-88 -111 -116 0
-66 -89 96 0
19 -52 -74 0
43 -55 -75 0
-2 -44 -51 0
-31 51 98 0
35 55 80 0
14 -17 30 0
7 55 -56 0
17 -45 -80 0
-22 -63 -101 0
-12 -67 100 0
34 51 119 0
-1 20 -56 0
-1 25 82 0
31 -81 -117 0
-6 98 108 0
57 71 -111 0
-5 13 -91 0
-18 -95 -110 0
5 39 -111 0
-27 -28 -59 0
-42 -63 106 0
86 109 116 0
3 7 -98 0
56 61 -72 0
-40 -83 -97 0
-2 -47 51 0
44 -62 -81 0
-37 79 115 0
14 50 88 0
-18 43 101 0
-50 100 -109 0
-27 -30 -67 0
23 -27 75 0
14 15 38 0
27 -56 -62 0
37 90 -105 0
65 84 97 0
-4 31 -35 0
-14 28 93 0
15 64 96 0
49 -74 114 0
-52 61 -88 0
17 77 88 0
-97 111 119 0
11 -66 -116 0
-8 17 -74 0
-35 -77 94 0
-22 28 74 0
71 78 -119 0
56 -95 99 0
51 74 110 0
76 98 119 0
7 -80 96 0
64 70 114 0
87 -100 -120 0
3 84 113 0
46 -73 83 0
66 -88 -100 0
-28 52 100 0
