c description: Random 3-CNF over 165 variables and 495 clauses
c generator: CNFgen (0.9.5)
c copyright: (C) 2012-2026 Massimo Lauria <massimo.lauria@uniroma1.it>
c url: https://massimolauria.net/cnfgen
c
p cnf 165 495
57 130 -156 0
22 -39 -125 0
-17 -33 47 0
49 100 -101 0
11 -46 -131 0
-33 100 -128 0
-95 -118 -153 0
54 95 -111 0
-130 -136 -150 0
51 52 -165 0
-28 91 -158 0
111 -116 142 0
6 -94 -104 0
-98 101 142 0
22 -45 -112 0
-54 119 -146 0
-39 -101 153 0
-57 60 148 0
-31 45 47 0
18 54 103 0
-51 78 85 0
-28 157 161 0
56 -93 -150 0
-26 126 -150 0
-21 -113 147 0
52 74 102 0
-86 -144 146 0
7 -25 59 0
19 28 55 0
5 73 -142 0
-68 80 156 0
-29 -44 -102 0
66 -108 113 0
121 -141 165 0
-38 75 82 0
98 -121 -147 0
-39 67 116 0
-62 77 148 0
-3 -68 -121 0
-14 30 -94 0
96 -136 144 0
4 -73 -154 0
-18 95 153 0
14 -106 -138 0
-99 -114 -116 0
60 -73 -81 0
-33 56 -60 0
-64 -79 -97 0
-14 -46 136 0
-15 54 -70 0
2 -88 112 0
-45 -74 97 0
1 66 -161 0
62 74 -108 0
-31 110 -123 0
43 -126 -135 0
-11 65 87 0
-35 -61 153 0
77 -92 135 0
-57 -109 126 0
-7 -46 -72 0
30 45 -162 0
-40 93 -163 0
44 117 -154 0
16 25 153 0
-50 -147 152 0
6 115 123 0
20 78 -157 0
37 48 152 0
-28 52 58 0
89 -99 -128 0
-74 -108 112 0
-49 78 94 0
6 -73 -93 0
-105 114 150 0
89 150 160 0
-99 -100 149 0
-38 -49 -162 0
-17 -44 109 0
-89 -131 144 0
-20 -44 -60 0
-15 -53 112 0
-8 -47 148 0
-10 79 93 0
-67 -98 -101 0
-22 -69 126 0
12 -95 137 0
-152 -154 -157 0
34 41 140 0
-48 69 -96 0
41 -68 -146 0
-77 134 162 0
132 151 159 0
-1 -147 159 0
3 26 113 0
21 -114 123 0
28 141 -161 0
63 72 162 0
2 -45 -126 0
24 45 99 0
-97 149 -163 0
-1 113 -120 0
-12 24 28 0
37 -44 -56 0
11 -88 -129 0
55 -113 153 0
-31 62 144 0
13 -98 -144 0
-12 20 -84 0
-11 52 -165 0
-18 -48 107 0
-86 -119 153 0
-88 102 126 0
93 -95 -141 0
14 55 131 0
-82 -92 -158 0
54 -138 140 0
22 -50 99 0
-48 125 -149 0
-26 -72 -158 0
3 -90 -154 0
18 30 99 0
-30 130 149 0
-69 92 -126 0
5 26 -141 0
-50 -81 -99 0
25 28 -155 0
1 -7 95 0
-57 -61 -123 0
-102 -112 -129 0
-27 83 -102 0
17 40 -89 0
36 72 146 0
29 38 135 0
-9 -24 -53 0
-21 -104 -145 0
27 -41 153 0
-15 130 -155 0
72 134 165 0
7 -32 36 0
-3 -59 120 0
20 -102 -144 0
76 -101 -132 0
49 -91 -161 0
85 126 142 0
35 121 163 0
48 77 159 0
29 -82 148 0
99 111 156 0
-23 -136 -145 0
116 117 132 0
20 -57 -165 0
17 67 104 0
-5 -33 137 0
-4 6 162 0
10 44 -98 0
39 -117 132 0
-31 -60 -138 0
-7 32 156 0
-51 -89 -161 0
-5 51 -140 0
-20 95 -109 0
-91 96 -160 0
-50 -95 -128 0
89 -114 -119 0
72 -139 157 0
1 -14 -106 0
-34 -138 156 0
-76 140 -147 0
7 -86 -145 0
57 82 131 0
-1 41 70 0
85 -112 131 0
-52 73 -106 0
-12 51 -151 0
-43 -110 -133 0
10 15 142 0
19 -27 -79 0
-33 -51 88 0
-43 139 -154 0
-70 74 122 0
5 -105 -139 0
-42 -60 -62 0
12 125 151 0
13 32 -92 0
-31 68 -78 0
69 -106 -125 0
-41 -59 137 0
-73 -122 -127 0
-30 40 -74 0
-57 108 -128 0
-8 -19 -155 0
109 -125 -150 0
41 76 -140 0
64 -82 -95 0
-41 59 -152 0
-36 39 48 0
-9 -47 -129 0
-1 58 -83 0
53 100 116 0
37 -107 -142 0
-24 53 74 0
10 89 -148 0
37 126 156 0
93 96 106 0
-46 -98 -164 0
-14 49 142 0
9 89 157 0
26 73 116 0
62 -115 147 0
17 -73 -142 0
97 -100 106 0
88 116 -155 0
53 85 99 0
55 104 145 0
-20 -47 -159 0
-96 -115 127 0
-79 -118 -130 0
-2 -26 -108 0
122 132 165 0
-50 60 -110 0
-116 118 164 0
100 -127 151 0
46 -82 -95 0
59 65 -135 0
-70 -75 -131 0
-18 -133 144 0
-104 140 -146 0
-28 96 159 0
7 86 121 0
-85 100 -115 0
61 -117 143 0
46 69 113 0
29 -90 153 0
-2 -84 131 0
-7 -94 -131 0
104 -153 -155 0
19 72 134 0
-70 -84 154 0
-95 105 -124 0
-46 60 -157 0
61 113 161 0
-56 -77 141 0
-40 65 146 0
26 -60 -159 0
-68 -91 115 0
-92 122 131 0
27 29 86 0
3 157 -158 0
-24 -103 129 0
33 137 155 0
35 -101 132 0
-28 85 135 0
-58 -72 -158 0
-59 60 101 0
12 79 129 0
65 -120 -153 0
-14 -44 -62 0
-15 54 154 0
27 -37 87 0
-83 87 -102 0
-8 24 -96 0
-124 159 -165 0
15 119 136 0
-24 50 154 0
47 -134 -135 0
-29 50 -152 0
-7 58 152 0
-12 -88 151 0
-74 124 155 0
37 50 165 0
18 20 51 0
6 -68 92 0
-14 -53 130 0
-27 -104 -160 0
90 -108 -133 0
-15 73 95 0
28 36 145 0
67 -118 -123 0
-30 128 -130 0
6 27 -146 0
12 -42 -112 0
10 34 122 0
68 -97 -113 0
104 -113 138 0
84 -149 157 0
105 120 -157 0
-17 -46 -118 0
54 -69 161 0
26 -140 147 0
-4 56 -94 0
-116 133 134 0
-2 -58 89 0
23 -121 165 0
-10 134 154 0
20 -34 -101 0
48 -99 115 0
-5 -12 85 0
-20 62 -131 0
-48 62 84 0
60 98 -154 0
86 -100 -163 0
41 96 152 0
-51 82 -141 0
6 -75 -84 0
19 80 -132 0
31 -134 150 0
16 -57 121 0
27 -97 -151 0
-6 61 -104 0
26 136 141 0
32 90 156 0
-25 120 156 0
-90 -102 136 0
-9 113 -137 0
-15 23 111 0
45 -47 -139 0
-12 -89 -99 0
73 -74 129 0
-76 -91 148 0
-36 -73 158 0
58 113 -118 0
-51 61 -73 0
-3 31 -154 0
-70 105 -164 0
5 52 -105 0
-118 -124 138 0
11 35 -110 0
-35 -58 -160 0
-17 -82 146 0
61 121 -145 0
-7 116 157 0
7 -89 -136 0
4 98 -139 0
-46 85 130 0
40 127 138 0
42 -84 138 0
42 47 111 0
8 38 117 0
-30 -43 86 0
78 111 -116 0
-25 -59 -149 0
-14 28 -80 0
-48 -71 110 0
-1 -8 -60 0
-24 -138 -157 0
-5 -93 -106 0
-9 18 63 0
-2 -3 5 0
-21 37 -160 0
-114 -122 -165 0
-38 91 -104 0
-7 -26 29 0
-22 -68 91 0
-19 65 -101 0
-65 -97 -98 0
-51 110 117 0
-79 -93 114 0
-51 -104 143 0
-31 -44 110 0
35 -128 155 0
87 -107 154 0
16 20 -23 0
-7 -48 -152 0
-2 75 157 0
75 -148 -164 0
-11 98 142 0
42 46 155 0
94 -98 -141 0
1 -16 134 0
-19 73 -120 0
-6 -15 -82 0
-22 -55 -121 0
15 -83 -139 0
-13 95 -106 0
39 -46 89 0
-8 -63 107 0
35 41 -110 0
-8 -57 -140 0
122 -140 165 0
-26 -100 -143 0
-41 -45 103 0
43 -44 -136 0
34 106 129 0
37 53 133 0
76 -138 -140 0
59 -112 -157 0
5 9 -62 0
-51 90 -93 0
51 -52 -152 0
-80 112 -146 0
-51 65 -140 0
-19 -66 -96 0
6 -67 -115 0
-7 -54 121 0
37 -113 -151 0
-21 -122 -134 0
-105 -140 -159 0
38 -97 -113 0
84 -125 163 0
-31 41 -85 0
85 95 -165 0
11 88 -123 0
-64 -107 130 0
-71 99 143 0
34 -35 -78 0
27 33 -157 0
38 43 -76 0
46 47 -50 0
-7 56 -123 0
70 81 147 0
58 80 -87 0
2 -16 40 0
-24 120 -153 0
-68 -107 158 0
-57 112 -149 0
-88 92 -125 0
-98 -101 -110 0
45 83 -109 0
-81 -85 -102 0
-40 97 -154 0
-2 -34 -163 0
41 63 101 0
-30 -89 144 0
69 136 161 0
-14 152 -158 0
-33 155 157 0
-54 90 -133 0
3 91 -146 0
-22 -71 -136 0
2 -58 -149 0
7 153 -158 0
-13 20 -31 0
19 -142 153 0
1 67 -127 0
-20 -81 -120 0
-41 56 -70 0
-65 82 129 0
6 32 46 0
-55 -117 -121 0
-75 -104 -142 0
-60 111 153 0
39 53 -128 0
7 -74 162 0
38 -101 -125 0
-43 -66 89 0
-59 83 137 0
-53 126 127 0
-18 24 -104 0
116 -163 -165 0
-22 48 -84 0
88 -91 -134 0
-23 -29 74 0
-100 -118 137 0
-44 114 162 0
-38 101 -105 0
-7 12 -128 0
-18 40 -137 0
-29 -46 -84 0
-90 123 141 0
-46 58 65 0
-90 103 -109 0
-38 -58 -61 0
-7 -113 160 0
-42 95 143 0
11 47 63 0
-25 -117 151 0
108 -109 -162 0
93 -119 -155 0
-75 94 116 0
16 -30 120 0
-83 -140 142 0
-2 33 86 0
88 -91 -117 0
76 -101 -117 0
46 -57 -67 0
77 -94 -129 0
-33 91 -117 0
-52 -130 -133 0
-8 -29 128 0
-25 27 130 0
30 -32 -96 0
-33 68 -86 0
16 60 136 0
-125 -143 -155 0
-30 -42 -48 0
-6 23 79 0
-68 102 149 0
-5 10 40 0
-1 70 127 0
65 -100 -118 0
-16 57 90 0
21 -28 135 0
56 -144 156 0
86 -109 117 0
