c description: Random 3-CNF over 160 variables and 480 clauses
c generator: CNFgen (0.9.5)
c copyright: (C) 2012-2026 Massimo Lauria <massimo.lauria@uniroma1.it>
c url: https://massimolauria.net/cnfgen
c
p cnf 160 480
99 105 -121 0
-15 110 -114 0
52 -61 -127 0
-33 109 122 0
-66 -115 121 0
-10 -26 46 0
46 -52 55 0
51 -57 -112 0
-50 -75 77 0
15 -90 -157 0
-89 -134 147 0
-62 90 143 0
4 -84 -151 0
-27 -44 -74 0
-33 48 -144 0
-4 -14 -45 0
-7 35 155 0
4 41 -145 0
2 94 99 0
-10 -106 -120 0
60 63 121 0
117 121 159 0
6 -11 -107 0
-101 -125 145 0
-26 -49 -64 0
-31 138 -143 0
-31 126 -141 0
-107 156 159 0
-52 -142 -152 0
61 149 160 0
50 -66 96 0
6 -41 -114 0
36 -52 87 0
-6 -10 78 0
20 -99 -150 0
-33 -68 73 0
-49 -55 -67 0
52 -61 74 0
-5 -53 140 0
17 -135 -155 0
-52 94 -160 0
-94 -98 -152 0
50 137 -139 0
12 -45 -57 0
2 62 -125 0
-14 -20 -81 0
-6 53 68 0
-52 88 -140 0
-40 51 93 0
4 -31 -37 0
-141 -155 -159 0
35 -69 -125 0
-54 91 -148 0
-16 -133 -152 0
-33 -40 62 0
12 -90 -135 0
17 46 89 0
17 91 138 0
-66 -98 140 0
-17 108 151 0
-62 106 143 0
-2 -38 153 0
14 -85 -101 0
7 -41 96 0
-53 92 149 0
-24 -35 -68 0
-10 113 141 0
6 -8 92 0
-77 -80 -122 0
-30 140 -158 0
31 -36 -70 0
-82 99 -118 0
-5 48 88 0
75 125 152 0
56 -90 104 0
-42 44 145 0
-122 148 -158 0
56 -101 -125 0
-6 -121 -142 0
3 -24 102 0
-6 126 -132 0
-26 30 125 0
-77 -119 144 0
-49 69 155 0
-43 94 111 0
-41 155 -157 0
59 94 -98 0
48 80 -86 0
-58 148 -156 0
5 -44 132 0
-17 -80 105 0
-13 97 -139 0
-15 -70 88 0
50 83 121 0
20 -27 -157 0
-52 64 72 0
-57 58 -59 0
8 48 91 0
60 -98 152 0
13 -21 -95 0
38 -97 -136 0
-16 83 128 0
-14 -35 129 0
-12 -79 155 0
4 26 122 0
-26 -67 -110 0
-66 70 -108 0
-89 -123 -152 0
33 -88 158 0
83 131 -149 0
85 -131 156 0
-10 72 -115 0
13 140 155 0
36 -143 147 0
-108 120 147 0
-16 -72 78 0
46 -83 -114 0
29 35 -86 0
111 -116 -145 0
-74 -146 156 0
9 78 84 0
78 115 145 0
-98 109 148 0
-40 -100 -112 0
25 -35 -127 0
20 -92 104 0
-71 141 -160 0
35 -72 -141 0
-34 -58 84 0
-26 -35 -91 0
-33 -136 142 0
39 68 -125 0
85 112 -117 0
-27 -48 150 0
-52 53 -82 0
-70 140 143 0
-63 67 -94 0
72 126 146 0
46 -48 -126 0
73 112 -135 0
24 -27 131 0
-25 62 -110 0
63 65 -85 0
-49 -83 -158 0
46 -78 128 0
46 -94 -103 0
3 43 99 0
-9 -105 -159 0
78 -142 145 0
60 69 -150 0
77 -82 114 0
-10 -12 -74 0
-93 -129 132 0
65 -75 -158 0
-22 95 106 0
-82 101 -130 0
4 97 101 0
116 -139 140 0
66 126 -155 0
-43 129 152 0
102 -106 120 0
4 -128 -149 0
100 112 -136 0
-80 84 -104 0
2 34 134 0
16 27 -107 0
9 67 112 0
111 -124 -156 0
6 -8 28 0
54 -132 137 0
-15 120 -150 0
-1 -91 101 0
48 94 -134 0
36 103 136 0
-18 52 -60 0
-7 -48 137 0
18 -92 -98 0
-127 134 156 0
1 24 112 0
7 -90 -150 0
1 -84 -154 0
18 -92 -152 0
-96 -112 113 0
11 -140 152 0
35 67 -119 0
3 -49 -92 0
20 -124 -157 0
-11 18 156 0
42 82 89 0
-1 -118 -134 0
-32 42 -118 0
-42 123 -129 0
92 -126 131 0
-58 60 -98 0
-21 -41 -126 0
-54 58 -59 0
-4 -23 -48 0
-36 -52 -96 0
-72 -89 137 0
22 -66 93 0
-2 -80 137 0
5 45 86 0
-68 107 -145 0
-28 29 133 0
-9 -10 123 0
-74 -89 114 0
-28 -49 90 0
-61 69 71 0
-19 -45 87 0
6 38 -68 0
34 113 130 0
-2 46 65 0
122 -131 -137 0
-32 39 -116 0
-70 -91 -93 0
-64 -87 -104 0
-50 103 -122 0
33 34 136 0
-3 -106 154 0
-26 -37 102 0
-59 -65 82 0
42 -83 114 0
-63 -90 -160 0
8 122 123 0
46 -59 121 0
81 -101 115 0
56 -104 143 0
72 -81 -113 0
90 91 147 0
25 40 -71 0
112 117 137 0
82 -84 -121 0
10 57 -80 0
8 -50 -138 0
8 60 120 0
16 -152 -155 0
3 91 -111 0
34 92 -96 0
37 -43 -47 0
-50 70 86 0
50 83 -139 0
-52 -61 -79 0
42 -98 -102 0
-50 -119 160 0
-74 84 97 0
-82 110 138 0
-82 95 -110 0
-22 -48 -68 0
-73 88 -130 0
-83 107 123 0
35 106 -120 0
-34 -77 149 0
-18 -60 124 0
-40 -42 58 0
-23 126 -127 0
-88 127 -151 0
49 -69 -110 0
62 75 99 0
36 -120 148 0
-17 18 133 0
39 108 -155 0
-42 54 -109 0
-49 76 -158 0
61 -114 -150 0
20 54 -155 0
-13 -47 -93 0
38 88 -101 0
31 64 106 0
69 121 -137 0
71 -82 121 0
-53 99 148 0
-100 105 -148 0
65 -83 -110 0
64 -121 -159 0
-2 -89 -125 0
49 73 -110 0
87 -92 154 0
-46 94 -138 0
-16 96 151 0
46 122 145 0
-7 138 147 0
1 130 138 0
15 -39 -118 0
-50 74 149 0
-82 -114 128 0
-56 73 134 0
-58 64 138 0
24 -98 148 0
-4 12 -126 0
16 111 156 0
74 -125 -133 0
-84 -115 119 0
1 97 104 0
-15 -118 123 0
-59 101 118 0
-36 -93 -148 0
-19 -99 -102 0
46 83 155 0
-37 46 -115 0
106 133 134 0
-18 72 -117 0
-14 104 -142 0
-29 -115 -148 0
-42 87 89 0
4 117 156 0
-76 -80 100 0
-104 -115 -143 0
24 -54 -118 0
34 87 100 0
-3 -63 105 0
-13 -111 -114 0
40 45 122 0
-32 -61 -139 0
-77 -86 -128 0
-38 -48 -73 0
25 74 91 0
16 -57 -100 0
-6 90 -106 0
-1 -107 108 0
-61 74 78 0
33 44 -94 0
-20 67 154 0
-1 36 87 0
-70 -109 126 0
-21 56 134 0
-64 -105 113 0
-51 -57 151 0
-45 124 -132 0
-43 76 83 0
8 -144 150 0
-97 142 -160 0
-60 70 -153 0
-81 -131 -154 0
-18 -110 134 0
23 -123 129 0
6 -75 79 0
-4 -134 -142 0
-2 7 -54 0
60 127 146 0
30 50 -119 0
103 -110 136 0
-2 46 -142 0
-63 -106 -160 0
35 -63 -72 0
22 -95 138 0
26 -123 -156 0
-47 -79 119 0
11 -60 -63 0
56 92 -113 0
-26 -68 -151 0
-52 131 147 0
-15 123 -152 0
90 -107 117 0
50 123 148 0
43 -58 158 0
34 -110 112 0
-3 32 58 0
29 73 -131 0
-42 -88 -91 0
-65 122 128 0
20 90 142 0
-4 5 -140 0
14 70 160 0
-84 -97 -102 0
-95 142 -152 0
39 -74 -99 0
73 -137 140 0
10 73 88 0
-13 29 -61 0
-33 -61 107 0
-8 60 145 0
67 -69 143 0
-45 -51 -157 0
-83 -89 -105 0
73 -105 -124 0
-47 55 -65 0
32 69 -97 0
-52 134 -145 0
40 -122 144 0
-63 -68 -89 0
19 40 53 0
-41 -54 -100 0
76 101 107 0
5 -38 -75 0
67 70 92 0
61 -108 117 0
-7 -12 -94 0
-1 69 -89 0
-4 51 145 0
1 38 72 0
-14 69 127 0
21 -60 73 0
-2 -107 154 0
-46 102 -114 0
-79 -116 -140 0
-85 -135 -150 0
-22 82 -129 0
32 127 154 0
30 -72 -152 0
-14 81 137 0
-36 145 147 0
-36 114 -134 0
99 121 -138 0
11 27 -81 0
5 -32 104 0
4 -116 139 0
57 90 101 0
22 -45 92 0
-13 26 -151 0
-44 85 -96 0
-94 145 -156 0
50 -55 -103 0
53 141 152 0
15 -84 114 0
22 -87 -156 0
-33 91 -155 0
67 71 117 0
-98 -107 115 0
-22 27 101 0
4 -43 -87 0
49 80 -151 0
-31 49 -53 0
87 -108 -119 0
-115 137 151 0
42 -109 -156 0
-46 -111 -152 0
19 71 -123 0
12 -55 -106 0
-14 67 -92 0
52 -73 -101 0
8 -26 -148 0
-1 -4 -89 0
-25 -81 -110 0
13 46 -82 0
-112 113 127 0
82 118 159 0
74 124 -129 0
-41 -63 137 0
-10 11 143 0
-86 -110 129 0
-49 56 -153 0
43 120 -133 0
-22 -85 -124 0
-115 -117 -146 0
39 85 -129 0
37 -126 -140 0
-72 121 -152 0
-22 37 89 0
-3 6 46 0
12 44 76 0
-57 67 -116 0
-21 31 -156 0
-26 -124 -155 0
-19 57 155 0
121 -144 145 0
-38 76 -105 0
-118 -123 -147 0
106 -149 -154 0
1 83 -115 0
4 48 96 0
27 -81 -103 0
5 55 120 0
-46 63 -64 0
-73 -76 -128 0
4 24 -159 0
-20 105 109 0
-25 51 117 0
17 52 -138 0
26 81 -154 0
6 9 32 0
-128 -142 145 0
14 100 -150 0
8 27 77 0
32 50 126 0
-19 -43 62 0
-47 -63 -153 0
-78 110 -144 0
-20 -103 -110 0
-10 20 -27 0
21 -94 120 0
