c description: Random 3-CNF over 30 variables and 80 clauses
c generator: CNFgen (0.9.5)
c copyright: (C) 2012-2026 Massimo Lauria <massimo.lauria@uniroma1.it>
c url: https://massimolauria.net/cnfgen
c command line: cnfgen randkcnf 3 30 80
c
p cnf 30 80
14 25 30 0
-7 8 -19 0
16 19 -22 0
15 -19 29 0
-2 9 12 0
1 2 16 0
20 21 29 0
-5 -13 22 0
24 -25 -27 0
-8 21 -28 0
-8 -14 22 0
17 -23 28 0
15 22 -25 0
-3 9 25 0
-1 -25 27 0
-2 -9 11 0
-5 27 -28 0
-2 -13 16 0
4 22 -27 0
13 -21 29 0
5 10 11 0
2 -13 15 0
-7 -11 -22 0
-8 -13 -24 0
17 -18 22 0
18 19 -29 0
2 -11 -27 0
3 13 -17 0
-3 -12 27 0
-1 -7 -22 0
-3 11 16 0
2 9 12 0
14 -23 26 0
-11 -23 -28 0
-2 8 27 0
4 11 -16 0
2 8 -28 0
-8 14 -29 0
-1 -2 13 0
1 2 -12 0
1 7 10 0
1 -13 25 0
-12 19 -30 0
3 6 21 0
-9 10 -20 0
-1 -19 -28 0
-13 22 29 0
10 -19 -21 0
-6 -8 20 0
-8 15 -22 0
-2 -13 21 0
1 -21 -28 0
7 -15 -28 0
8 -16 -17 0
6 -13 -26 0
-14 26 29 0
1 5 -10 0
-6 20 25 0
11 -26 27 0
21 22 -24 0
6 -7 -17 0
-19 20 -21 0
4 12 -27 0
3 -4 7 0
10 11 18 0
10 21 28 0
3 6 7 0
1 13 -25 0
4 -18 -22 0
-9 20 21 0
10 11 -22 0
6 10 30 0
11 14 19 0
-8 -22 25 0
4 -15 -23 0
3 -5 -9 0
9 -12 -13 0
-3 5 28 0
6 -25 28 0
-8 -12 15 0
