c description: Random 5-CNF over 20 variables and 50 clauses
c generator: CNFgen (0.9.5)
c copyright: (C) 2012-2026 Massimo Lauria <massimo.lauria@uniroma1.it>
c url: https://massimolauria.net/cnfgen
c command line: cnfgen randkcnf 5 20 50
c
p cnf 20 50
5 9 -11 -15 16 0
-4 -6 -12 15 -19 0
3 5 -6 11 17 0
4 11 14 -16 17 0
2 10 14 -16 20 0
7 -9 -12 13 -18 0
3 -6 8 -10 -16 0
-1 7 12 -13 -19 0
2 -9 15 -19 20 0
1 -8 -11 17 -20 0
6 -8 -14 18 -19 0
-6 9 -10 16 -17 0
-1 3 -10 -16 -20 0
7 -9 11 16 -19 0
-1 -3 -4 -13 -20 0
-13 -14 -15 -18 20 0
2 3 7 -12 14 0
-2 5 -8 10 -13 0
-4 10 12 -13 -14 0
3 6 -8 -10 17 0
7 9 -11 -12 18 0
1 -2 15 17 19 0
-9 11 12 -13 14 0
2 -4 5 -12 -19 0
2 -6 -12 -17 -18 0
2 -3 -11 12 20 0
-1 -2 -3 5 -7 0
7 -10 -11 14 -17 0
4 8 9 14 -15 0
1 3 4 8 18 0
5 13 -15 -18 -19 0
2 -4 -14 -16 17 0
8 -10 -13 14 19 0
2 3 6 -16 20 0
1 4 10 11 -16 0
-7 -13 -15 16 -18 0
-4 -8 9 14 20 0
2 4 -13 14 -17 0
3 -6 10 12 16 0
4 -5 -11 -13 17 0
2 3 -6 8 -14 0
1 2 -11 -17 -19 0
-2 3 -7 9 -18 0
1 9 -11 12 15 0
1 6 14 16 20 0
1 9 -11 -13 -20 0
-2 -6 -7 -10 -15 0
-2 5 -16 18 20 0
-6 -8 -10 11 -18 0
-4 5 -12 15 16 0
