c description: Random 5-CNF over 20 variables and 100 clauses
c generator: CNFgen (0.9.5)
c copyright: (C) 2012-2026 Massimo Lauria <massimo.lauria@uniroma1.it>
c url: https://massimolauria.net/cnfgen
c command line: cnfgen randkcnf 5 20 100
c
p cnf 20 100
3 5 -14 -15 -16 0
-8 -10 13 16 20 0
7 8 9 10 12 0
2 3 8 9 -17 0
2 3 4 -16 -20 0
-4 10 13 18 -19 0
-6 -7 -12 15 16 0
6 -9 -15 18 -20 0
12 -13 -18 -19 20 0
-2 -13 15 -19 20 0
-4 -7 -13 16 17 0
4 8 11 -14 20 0
5 6 8 15 -16 0
-1 -6 9 -16 -20 0
-3 4 13 17 -20 0
4 5 8 -14 15 0
2 10 -14 -15 20 0
6 8 10 16 18 0
4 -9 12 16 -17 0
1 -5 9 14 15 0
1 -6 -16 -17 -18 0
1 3 9 11 17 0
-4 10 11 12 19 0
-10 12 14 16 20 0
-1 -6 8 15 -19 0
-4 -10 14 -15 -16 0
-2 4 8 -15 -17 0
2 -3 8 17 -18 0
2 7 11 -15 -19 0
-3 -7 -9 13 -16 0
1 7 -14 -19 -20 0
3 -4 -10 15 19 0
1 7 12 -14 -20 0
1 2 8 17 -18 0
-4 6 -8 11 -12 0
-1 11 -13 -18 -20 0
-1 2 6 14 17 0
1 -4 11 14 -18 0
11 -12 -13 -15 16 0
-12 13 14 16 -19 0
5 -15 -17 -19 20 0
1 3 4 -17 19 0
4 8 -16 -17 20 0
-1 3 -10 19 -20 0
-2 -3 4 -19 -20 0
-4 12 13 16 -20 0
-12 13 15 16 -19 0
-5 8 12 -14 -20 0
13 -14 -16 18 20 0
-1 -2 8 -11 16 0
5 10 16 -17 20 0
-7 -8 -10 -12 13 0
-2 11 -13 -15 -19 0
-1 3 -4 -9 10 0
-1 -3 6 9 19 0
-6 -8 10 -15 -20 0
3 6 -13 -16 20 0
-3 4 -8 9 -19 0
2 -6 -9 10 15 0
1 -6 12 16 -17 0
-5 12 15 18 -20 0
15 -17 18 -19 20 0
2 3 9 11 18 0
1 -2 9 11 -20 0
2 7 -9 14 -20 0
1 -4 5 8 -12 0
4 8 12 -15 18 0
3 -4 5 -11 -14 0
-3 -6 -8 12 -16 0
-1 7 -11 -18 20 0
4 -12 15 -17 19 0
-1 3 -6 -11 -16 0
2 -4 -9 -10 -14 0
-7 -13 -14 17 19 0
1 9 11 12 -15 0
1 3 9 16 -20 0
-2 -5 -8 -9 17 0
3 6 9 13 19 0
-1 -6 10 -11 -13 0
-3 8 10 11 -18 0
5 6 11 18 19 0
-2 6 -8 -9 -12 0
1 -2 -10 -13 -16 0
4 -8 -11 -17 20 0
-5 16 -17 -19 20 0
7 11 12 -14 18 0
-7 -8 -12 15 -19 0
-3 9 13 15 -18 0
-1 4 -9 -14 18 0
-2 -6 -7 -15 20 0
7 -9 14 -18 19 0
3 5 -6 11 15 0
1 5 6 17 19 0
3 11 -12 -18 -20 0
5 10 -11 13 -17 0
1 -3 5 9 18 0
-3 -9 11 13 -17 0
3 5 6 -15 -18 0
2 -3 -4 -10 -16 0
4 6 8 -11 -12 0
