c description: Random 4-CNF over 30 variables and 80 clauses
c generator: CNFgen (0.9.5)
c copyright: (C) 2012-2026 Massimo Lauria <massimo.lauria@uniroma1.it>
c url: https://massimolauria.net/cnfgen
c command line: cnfgen randkcnf 4 30 80
c
p cnf 30 80
4 14 16 17 0
-12 15 19 -28 0
-3 -10 23 24 0
11 12 -21 -24 0
9 -21 23 28 0
-1 -5 -11 16 0
-5 -9 21 22 0
-3 -8 -17 24 0
-9 15 -22 29 0
-9 -12 13 28 0
-4 12 -17 22 0
1 14 -16 -25 0
-2 5 9 12 0
2 -6 -19 25 0
-11 -12 23 -26 0
8 10 25 29 0
4 5 16 -27 0
8 15 18 -30 0
4 -8 23 -30 0
-6 11 -13 30 0
7 15 -21 30 0
16 24 -27 -29 0
2 6 -27 28 0
-12 14 -23 28 0
5 -11 16 -30 0
-4 -18 25 28 0
9 13 18 19 0
-15 21 -23 -25 0
-10 -16 22 -23 0
5 -21 -26 30 0
11 12 16 19 0
-4 -8 -18 19 0
-2 3 25 -27 0
3 -4 -6 14 0
5 7 17 -21 0
5 -16 22 -29 0
-2 -6 -7 -30 0
-4 6 -15 -18 0
-15 18 21 -26 0
-9 -10 11 14 0
-11 -14 -17 19 0
9 13 20 -22 0
-4 -6 20 -21 0
-6 -9 -10 -21 0
-6 -8 15 26 0
1 -14 -21 24 0
2 -5 8 -25 0
5 -10 -27 30 0
2 -6 17 22 0
-7 -16 -17 -30 0
-10 12 22 26 0
4 -10 -21 -27 0
-16 20 22 30 0
-7 -11 -16 -23 0
10 11 -19 26 0
-2 -12 -19 -27 0
9 -11 -14 24 0
4 14 -22 23 0
16 -21 -23 29 0
-6 -17 24 26 0
-12 -18 -19 27 0
-18 19 21 26 0
-3 6 -15 17 0
-2 5 -23 24 0
2 7 20 30 0
18 22 -23 -26 0
-8 10 -29 30 0
-18 -20 -24 -28 0
9 11 23 24 0
6 14 -20 -24 0
-17 -20 -21 22 0
5 -9 -20 30 0
-3 -10 15 25 0
-1 2 -22 -30 0
-1 3 -10 -21 0
-12 -15 -20 -23 0
-4 15 -25 27 0
-2 5 16 -26 0
3 -6 13 -24 0
3 14 -17 -24 0
